LAMMPS (11 Feb 2026)
OMP_NUM_THREADS environment is not set. Defaulting to 1 thread.
  using 1 OpenMP thread(s) per MPI task
Loaded 1 plugins from F:\sla_hiwi\LAMMPS 64-bit\plugins
# -------------------------------------------------------
#  Basic water channel simulation  -  SPC/E model
#  Boundaries: periodic x & z,  wall top-y,  symmetric bottom-y
# -------------------------------------------------------

units           real
atom_style      full
boundary        p f p

pair_style      lj/cut/coul/cut 10.0
bond_style      harmonic
angle_style     harmonic

read_data       water_channel.data
Reading data file ...
  orthogonal box = (0 0 0) to (100 30 30)
  1 by 1 by 1 MPI processor grid
  reading atoms ...
  300 atoms
  scanning bonds ...
  2 = max bonds/atom
  scanning angles ...
  1 = max angles/atom
  orthogonal box = (0 0 0) to (100 30 30)
  1 by 1 by 1 MPI processor grid
  reading bonds ...
  200 bonds
  reading angles ...
  100 angles
Finding 1-2 1-3 1-4 neighbors ...
  special bond factors lj:    0        0        0       
  special bond factors coul:  0        0        0       
     2 = max # of 1-2 neighbors
     1 = max # of 1-3 neighbors
     1 = max # of 1-4 neighbors
     2 = max # of special neighbors
  special bonds CPU = 0.001 seconds
  read_data CPU = 0.009 seconds

pair_coeff      1 1   0.15535  3.16600
pair_coeff      2 2   0.00000  0.00000
pair_coeff      1 2   0.00000  0.00000

bond_coeff      1   1000.0   1.0
angle_coeff     1   1000.0   109.47

set type 1 charge -0.8476
Setting atom values ...
  100 settings made for charge
set type 2 charge  0.4238
Setting atom values ...
  200 settings made for charge

fix  SHAKE     all shake 0.0001 100 0 b 1 a 1
Finding SHAKE clusters ...
       0 = # of size 2 clusters
       0 = # of size 3 clusters
       0 = # of size 4 clusters
     100 = # of frozen angles
  find clusters CPU = 0.001 seconds
fix  WALL_TOP  all wall/reflect yhi EDGE
fix  WALL_BOT  all wall/reflect ylo EDGE

neighbor        2.0 bin
neigh_modify    every 1 delay 0 check yes

# --- Step 1: minimization ---
# Push overlapping molecules apart before doing any dynamics
# This brings energy from 83000 down to something sensible
thermo          10
thermo_style    custom step temp press etotal
minimize        1.0e-4 1.0e-6 500 5000
Generated 0 of 1 mixed pair_coeff terms from geometric mixing rule
WARNING: Using fix shake with minimization.
  Substituting constraints with harmonic restraint forces using kbond=1987206.7 (src/RIGID/fix_shake.cpp:397)
Neighbor list info ...
  update: every = 1 steps, delay = 0 steps, check = yes
  max neighbors/atom: 2000, page size: 100000
  master list distance cutoff = 12
  ghost atom cutoff = 12
  binsize = 6, bins = 17 5 5
  1 neighbor lists, perpetual/occasional/extra = 1 0 0
  (1) pair lj/cut/coul/cut, perpetual
      attributes: half, newton on
      pair build: half/bin/newton
      stencil: half/bin/3d
      bin: standard
Per MPI rank memory allocation (min/avg/max) = 8.588 | 8.588 | 8.588 Mbytes
   Step          Temp          Press          TotEng    
         0   0              148820.02      48835.705    
        10   0              7856.5028      3011.4626    
        20   0              1070.8569      578.74287    
        30   0              2201.4984      528.12075    
Loop time of 0.009785 on 1 procs for 30 steps with 300 atoms

159.7% CPU use with 1 MPI tasks x 1 OpenMP threads

Minimization stats:
  Stopping criterion = energy tolerance
  Energy initial, next-to-last, final = 
      48835.7049557008   528.122653207145   528.120754224549
  Force two-norm initial, final = 630759.1 15087.165
  Force max component initial, final = 400862.32 9261.7329
  Final line search alpha, max atom move = 2.8322537e-06 0.026231577
  Iterations, force evaluations = 30 105

MPI task timing breakdown:
Section |  min time  |  avg time  |  max time  |%varavg| %total
---------------------------------------------------------------
Pair    | 0.005047   | 0.005047   | 0.005047   |   0.0 | 51.58
Bond    | 7e-06      | 7e-06      | 7e-06      |   0.0 |  0.07
Neigh   | 0          | 0          | 0          |   0.0 |  0.00
Comm    | 0.000153   | 0.000153   | 0.000153   |   0.0 |  1.56
Output  | 0.000446   | 0.000446   | 0.000446   |   0.0 |  4.56
Modify  | 0.003562   | 0.003562   | 0.003562   |   0.0 | 36.40
Other   |            | 0.00057    |            |       |  5.83

Nlocal:            300 ave         300 max         300 min
Histogram: 1 0 0 0 0 0 0 0 0 0
Nghost:            330 ave         330 max         330 min
Histogram: 1 0 0 0 0 0 0 0 0 0
Neighs:           3212 ave        3212 max        3212 min
Histogram: 1 0 0 0 0 0 0 0 0 0

Total # of neighbors = 3212
Ave neighs/atom = 10.706667
Ave special neighs/atom = 2
Neighbor list builds = 0
Dangerous builds = 0

# --- Step 2: NVT dynamics ---
fix  NVT  all nvt temp 300.0 300.0 100.0

thermo          50
thermo_style    custom step temp press etotal

dump         TRAJ  all atom 100 traj.lammpstrj
dump_modify  TRAJ  sort id

timestep   2.0
run        10000
Generated 0 of 1 mixed pair_coeff terms from geometric mixing rule
Per MPI rank memory allocation (min/avg/max) = 7.463 | 7.463 | 7.463 Mbytes
   Step          Temp          Press          TotEng    
        30   0              1146.5222      514.67041    
        50   655.44599      96.089139      321.33742    
       100   436.85859      43.075779      179.80592    
       150   321.35973      39.285566      239.33494    
       200   296.64194      40.162872      149.33943    
       250   283.15801      14.910428      7.3290192    
       300   293.90284     -3.5271792      73.078863    
       350   324.76691     -3.0911827     -58.458344    
       400   305.38936     -12.701695     -84.608543    
       450   295.93952     -30.370095     -130.91309    
       500   296.11686      43.918291      127.31679    
       550   318.79105      13.346191     -31.898803    
       600   301.68967      2.1421155     -27.004438    
       650   281.0795       23.187903      15.435868    
       700   285.76283      79.827201      149.35555    
       750   295.69744      9.4901355     -106.58275    
       800   323.704        60.734974      146.12692    
       850   303.02945      14.193647     -95.781549    
       900   321.18393      16.604743      30.285642    
       950   300.9444       31.419148      69.11158     
      1000   282.47687      5.049604      -96.535189    
      1050   281.24276      55.105685     -34.074654    
      1100   296.76956     -32.117153     -59.199945    
      1150   312.95594      50.26922      -116.0847     
      1200   301.02584      41.741577     -3.9227829    
      1250   315.45032      9.1067815     -148.99835    
      1300   303.14954      16.097277     -137.59524    
      1350   325.78443     -0.45412477    -110.82123    
      1400   296.97379      8.4911851     -86.615579    
      1450   306.24701      34.386923     -106.25835    
      1500   294.69136     -44.934357     -324.91707    
      1550   288.29493      57.716665     -150.01429    
      1600   287.42095     -69.362246     -395.75466    
      1650   278.51702     -42.305128     -299.70331    
      1700   312.24507     -3.346535      -214.05954    
      1750   305.03092      20.329251     -262.54886    
      1800   305.56421     -52.374136     -228.58778    
      1850   291.50867      107.04255     -226.84729    
      1900   291.18684     -80.372146     -400.79348    
      1950   317.7033       14.742736     -208.6226     
      2000   325.50685      69.190634      25.091353    
      2050   296.30677     -46.387534     -228.57985    
      2100   309.36628      2.656238      -440.90612    
      2150   313.79025     -6.9435964     -289.91411    
      2200   303.24901     -63.888867     -476.30496    
      2250   298.23583      26.033857     -258.65799    
      2300   302.48444      25.276189     -194.53205    
      2350   316.25148      16.242153     -146.07599    
      2400   295.55356     -55.090619     -260.95711    
      2450   335.53941      75.713596     -79.031696    
      2500   297.1467      -80.901428     -445.22374    
      2550   283.66065      63.04668      -136.31414    
      2600   312.7599       32.099995     -212.53746    
      2650   317.71511     -44.201343     -397.67387    
      2700   310.58451      20.960597     -130.81918    
      2750   296.10167      27.367375     -99.126067    
      2800   308.89642      42.264183     -287.20428    
      2850   287.15065     -50.960327     -345.80415    
      2900   281.55635     -4.6248467     -365.17666    
      2950   287.6236       19.286498     -394.0156     
      3000   250.32545     -57.830626     -369.39006    
      3050   285.62678     -23.052629     -540.98757    
      3100   294.47277     -73.015702     -477.10346    
      3150   326.75248      70.269998     -173.60704    
      3200   309.37527     -99.541635     -369.084      
      3250   293.19808      37.564065     -386.94389    
      3300   302.23953     -3.0811345     -275.65389    
      3350   288.22429      69.13088      -238.42716    
      3400   318.59463     -33.623891     -316.49985    
      3450   318.95505      16.904486     -326.97264    
      3500   283.17044      3.1766877     -272.80763    
      3550   299.14937     -34.237453     -438.12375    
      3600   301.05633      40.472333     -394.54956    
      3650   287.82411      70.298346     -291.0228     
      3700   285.85029      53.573799     -198.46126    
      3750   292.88462     -87.550556     -539.38657    
      3800   319.2792      -53.752442     -597.95713    
      3850   310.21267     -1.4438834     -307.17192    
      3900   328.42228      46.097845     -334.67708    
      3950   310.78008     -134.03071     -664.16683    
      4000   317.3703       20.827507     -348.58213    
      4050   292.59487      41.764547     -233.66551    
      4100   286.67656     -61.124333     -532.68283    
      4150   302.53058      123.42813     -221.70878    
      4200   276.12122     -80.61209      -348.55643    
      4250   317.04489      124.52397     -456.63817    
      4300   294.51998     -76.522968     -688.00971    
      4350   303.20623     -45.036499     -617.22421    
      4400   297.91065      19.922787     -488.61283    
      4450   289.16813      48.002479     -255.15426    
      4500   261.94387     -10.722219     -461.0266     
      4550   328.15767     -34.954551     -535.23601    
      4600   285.79789      66.75365      -342.3332     
      4650   278.84797     -74.096223     -473.34156    
      4700   294.22984      17.049957     -544.2889     
      4750   290.69168      31.360732     -163.52149    
      4800   282.9067       7.6206597     -360.86096    
      4850   275.90128      95.10706      -481.12892    
      4900   295.32367     -94.193844     -593.87355    
      4950   311.04976      95.517736     -327.39079    
      5000   299.25272     -69.813485     -554.94574    
      5050   309.04384      45.343666     -309.35356    
      5100   336.64627     -9.6977906     -409.17734    
      5150   306.74094      14.683918     -345.74562    
      5200   311.5804      -18.973203     -478.06498    
      5250   320.01221      16.662862     -335.64623    
      5300   312.17351     -38.388681     -464.65576    
      5350   326.29911      12.116248     -448.32099    
      5400   279.21047     -49.663645     -518.24188    
      5450   298.05873     -42.495001     -552.36129    
      5500   316.30769      13.498521     -234.91658    
      5550   283.17819      100.79853     -337.60716    
      5600   276.44226     -56.320908     -383.15369    
      5650   331.81958      80.827994     -243.23469    
      5700   310.61314      24.15029      -388.67165    
      5750   292.82284     -33.315105     -225.36408    
      5800   297.03042      23.272658     -444.13171    
      5850   296.25483     -1.9789685     -603.18807    
      5900   265.50328     -43.274439     -613.34833    
      5950   295.48718      23.147961     -231.06853    
      6000   295.9016      -35.42237      -477.80994    
      6050   311.03546     -3.2768762     -423.29291    
      6100   310.65594     -56.129146     -532.62396    
      6150   305.6158      -29.378276     -501.11131    
      6200   310.15403     -14.953016     -600.6502     
      6250   285.46937      26.686398     -397.87557    
      6300   312.59777      7.5646778     -385.39236    
      6350   313.73795     -74.108155     -492.41303    
      6400   272.711        75.448497     -399.27606    
      6450   306.45286      23.051378     -330.54904    
      6500   300.81597     -48.064177     -614.63684    
      6550   291.52138     -11.594543     -417.34128    
      6600   291.10269      38.984256     -261.33898    
      6650   287.45403      28.038752     -328.44626    
      6700   308.65079     -12.083438     -514.17147    
      6750   305.87104     -50.604004     -613.4608     
      6800   322.43309     -30.704475     -577.27095    
      6850   290.51539     -32.479778     -559.24768    
      6900   256.3291      -69.675054     -423.91788    
      6950   319.48835      74.849538     -339.32897    
      7000   294.92465      20.378444     -311.796      
      7050   290.47371     -24.637382     -536.96465    
      7100   273.29375     -1.748635      -459.85047    
      7150   294.81426      57.216572     -378.33713    
      7200   280.84898      6.6813635     -483.79537    
      7250   311.76551      30.262112     -330.98171    
      7300   312.96324      113.17526     -259.24221    
      7350   294.75002     -90.417178     -666.54869    
      7400   312.34272     -6.9551305     -572.936      
      7450   295.54015      24.177842     -197.18565    
      7500   313.40467      47.23034      -485.33062    
      7550   314.85335      14.282559     -393.2188     
      7600   291.12739      49.674525     -485.33964    
      7650   301.34236     -12.302546     -528.99254    
      7700   351.56808      7.8792954     -775.95528    
      7750   297.91096     -98.89433      -641.71249    
      7800   322.41921      6.0309699     -462.89941    
      7850   292.42945     -3.3263966     -561.24217    
      7900   306.76919     -19.548576     -417.15103    
      7950   278.36434      122.84697     -272.75791    
      8000   265.78956     -47.763782     -444.02535    
      8050   293.19723      33.321609     -493.55372    
      8100   286.01561     -6.5498858     -544.31448    
      8150   287.80505      87.392106     -196.95838    
      8200   298.01711     -18.033722     -417.15145    
      8250   311.07034     -21.62206      -728.68556    
      8300   268.05331      11.031175     -407.36448    
      8350   279.40458      61.05428      -186.44985    
      8400   308.29521     -11.00658      -571.0715     
      8450   320.77506     -65.33187      -591.081      
      8500   297.62511      60.358831     -63.261173    
      8550   287.72251     -83.440708     -638.81467    
      8600   288.34781     -39.731342     -663.92184    
      8650   293.39521      75.372565     -477.94224    
      8700   333.98588     -13.138729     -497.00731    
      8750   295.70085      77.062657     -370.40102    
      8800   287.08031     -20.913794     -437.48259    
      8850   304.42864     -35.145613     -469.62804    
      8900   290.79172      6.0081025     -530.07221    
      8950   273.74238     -43.524399     -605.58688    
      9000   319.69974     -29.463564     -504.37217    
      9050   306.22871      86.2898       -311.93011    
      9100   274.67737     -42.085951     -588.75334    
      9150   305.84425      41.596758     -428.72206    
      9200   253.65742     -72.632691     -636.39329    
      9250   278.13155     -40.918263     -621.61176    
      9300   302.79523     -1.7411406     -477.91231    
      9350   313.54075     -57.433741     -742.02467    
      9400   286.42443      57.711751     -380.86778    
      9450   292.51395      4.9540178     -256.83812    
      9500   333.42572      15.978908     -585.35914    
      9550   304.50666      137.19488     -259.58762    
      9600   303.00468     -50.542523     -514.63638    
      9650   298.67143      90.813113     -319.04859    
      9700   302.89409     -37.834943     -504.55004    
      9750   306.36739      5.2844432     -580.91988    
      9800   301.36163      19.21941      -584.41231    
      9850   277.83304      19.892606     -369.07032    
      9900   280.20617     -19.714312     -520.905      
      9950   320.72918      38.0838       -531.56429    
     10000   276.77114     -52.869515     -570.33772    
     10030   313.97433      9.7703199     -630.81218    
Loop time of 1.10797 on 1 procs for 10000 steps with 300 atoms

Performance: 1559.605 ns/day, 0.015 hours/ns, 9025.491 timesteps/s, 2.708 Matom-step/s
93.1% CPU use with 1 MPI tasks x 1 OpenMP threads

MPI task timing breakdown:
Section |  min time  |  avg time  |  max time  |%varavg| %total
---------------------------------------------------------------
Pair    | 0.60127    | 0.60127    | 0.60127    |   0.0 | 54.27
Bond    | 0.001826   | 0.001826   | 0.001826   |   0.0 |  0.16
Neigh   | 0.12405    | 0.12405    | 0.12405    |   0.0 | 11.20
Comm    | 0.02194    | 0.02194    | 0.02194    |   0.0 |  1.98
Output  | 0.12741    | 0.12741    | 0.12741    |   0.0 | 11.50
Modify  | 0.19632    | 0.19632    | 0.19632    |   0.0 | 17.72
Other   |            | 0.03516    |            |       |  3.17

Nlocal:            300 ave         300 max         300 min
Histogram: 1 0 0 0 0 0 0 0 0 0
Nghost:            343 ave         343 max         343 min
Histogram: 1 0 0 0 0 0 0 0 0 0
Neighs:           8393 ave        8393 max        8393 min
Histogram: 1 0 0 0 0 0 0 0 0 0

Total # of neighbors = 8393
Ave neighs/atom = 27.976667
Ave special neighs/atom = 2
Neighbor list builds = 844
Dangerous builds = 0
Total wall time: 0:00:01
