ITEM: TIMESTEP
100
ITEM: NUMBER OF ATOMS
300
ITEM: BOX BOUNDS pp ff pp
0.0000000000000000e+00 1.0000000000000000e+02
0.0000000000000000e+00 3.0000000000000000e+01
0.0000000000000000e+00 3.0000000000000000e+01
ITEM: ATOMS id type xs ys zs
1 1 0.379397 0.889063 0.702216
2 2 0.370739 0.888633 0.685544
3 2 0.385989 0.869213 0.686906
4 1 0.589502 0.198676 0.22222
5 2 0.593862 0.169998 0.213422
6 2 0.589399 0.20122 0.255455
7 1 0.0746953 0.814127 0.584112
8 2 0.0733238 0.844158 0.597836
9 2 0.0805116 0.79567 0.603975
10 1 0.698772 0.0819354 0.905754
11 2 0.701194 0.0959678 0.934891
12 2 0.705885 0.0885616 0.883282
13 1 0.820612 0.24377 0.223957
14 2 0.829672 0.255376 0.231976
15 2 0.814539 0.269328 0.217026
16 1 0.196537 0.333863 0.528809
17 2 0.194756 0.301138 0.526583
18 2 0.193995 0.348665 0.50017
19 1 0.436368 0.318599 0.593566
20 2 0.42986 0.341727 0.603846
21 2 0.431528 0.289996 0.587849
22 1 0.152311 0.306716 0.38615
23 2 0.147623 0.30389 0.415458
24 2 0.154955 0.276457 0.375295
25 1 0.459422 0.743321 0.242926
26 2 0.450111 0.735927 0.233277
27 2 0.464158 0.715381 0.25194
28 1 0.514076 0.572735 0.105367
29 2 0.507468 0.565141 0.129205
30 2 0.519948 0.546392 0.0995253
31 1 0.605955 0.22057 0.0909429
32 2 0.601873 0.190959 0.0979542
33 2 0.599003 0.244373 0.0936815
34 1 0.933625 0.900695 0.75457
35 2 0.935272 0.902229 0.787411
36 2 0.938736 0.875129 0.741638
37 1 0.312141 0.149649 0.656925
38 2 0.310807 0.126505 0.633352
39 2 0.312179 0.135087 0.686909
40 1 0.442904 0.169377 0.499707
41 2 0.437632 0.177272 0.472505
42 2 0.450931 0.18915 0.501775
43 1 0.05564 0.849177 0.295493
44 2 0.055493 0.815936 0.293066
45 2 0.0588655 0.857948 0.3258
46 1 0.654781 0.332502 0.518585
47 2 0.645061 0.331673 0.526372
48 2 0.659456 0.306885 0.533144
49 1 0.546814 0.224586 0.92091
50 2 0.550549 0.231577 0.89079
51 2 0.552766 0.23746 0.944397
52 1 0.764298 0.884016 0.845543
53 2 0.761464 0.855298 0.831501
54 2 0.773986 0.882335 0.853632
55 1 0.594225 0.85975 0.139185
56 2 0.587353 0.840913 0.1544
57 2 0.601886 0.840598 0.129584
58 1 0.211134 0.0995563 0.344455
59 2 0.209659 0.109873 0.313142
60 2 0.204076 0.0774255 0.352685
61 1 0.394097 0.286307 0.780868
62 2 0.389804 0.316093 0.776503
63 2 0.403348 0.290439 0.792833
64 1 0.361847 0.30947 0.538486
65 2 0.357625 0.302797 0.509016
66 2 0.370897 0.295353 0.539842
67 1 0.154216 0.760637 0.127793
68 2 0.153075 0.744341 0.156621
69 2 0.157838 0.791126 0.133775
70 1 0.96555 0.736601 0.233832
71 2 0.96427 0.704753 0.224965
72 2 0.975327 0.743364 0.235633
73 1 0.0235388 0.770063 0.678146
74 2 0.0149438 0.783421 0.688722
75 2 0.0226784 0.736865 0.67729
76 1 0.720911 0.734699 0.132028
77 2 0.716923 0.751249 0.106328
78 2 0.727485 0.712295 0.120674
79 1 0.382659 0.156582 0.774525
80 2 0.387345 0.168078 0.801636
81 2 0.386839 0.169747 0.747255
82 1 0.615747 0.352083 0.112232
83 2 0.613182 0.319996 0.109331
84 2 0.62279 0.35525 0.135681
85 1 0.317548 0.349858 0.702227
86 2 0.313805 0.31896 0.70134
87 2 0.322855 0.355496 0.674544
88 1 0.634326 0.833025 0.474065
89 2 0.624588 0.839157 0.478512
90 2 0.637238 0.845345 0.444653
91 1 0.134424 0.675806 0.731008
92 2 0.133879 0.644956 0.743501
93 2 0.139753 0.675344 0.702805
94 1 0.558524 0.732685 0.494061
95 2 0.556286 0.750394 0.521299
96 2 0.557622 0.700174 0.500779
97 1 0.521749 0.437844 0.089559
98 2 0.513031 0.427774 0.0767028
99 2 0.527406 0.411265 0.0965612
100 1 0.125397 0.0993834 0.610746
101 2 0.115903 0.0994587 0.621222
102 2 0.130717 0.0779538 0.629114
103 1 0.32092 0.50694 0.857007
104 2 0.315949 0.529676 0.83913
105 2 0.317185 0.476658 0.850751
106 1 0.257927 0.426549 0.722101
107 2 0.254946 0.395127 0.727102
108 2 0.267379 0.42664 0.711219
109 1 0.237491 0.134439 0.320409
110 2 0.236431 0.136503 0.35349
111 2 0.231796 0.109653 0.308731
112 1 0.175488 0.871917 0.770246
113 2 0.16677 0.855696 0.768337
114 2 0.180368 0.869017 0.741296
115 1 0.626816 0.81881 0.761328
116 2 0.620694 0.794797 0.772194
117 2 0.636232 0.81136 0.769723
118 1 0.199865 0.841656 0.534893
119 2 0.194678 0.821234 0.515018
120 2 0.207307 0.855645 0.517571
121 1 0.843047 0.873964 0.206633
122 2 0.851019 0.892471 0.198739
123 2 0.834705 0.891382 0.200771
124 1 0.12793 0.269011 0.436584
125 2 0.119831 0.287541 0.442823
126 2 0.125099 0.238742 0.426296
127 1 0.805076 0.811412 0.072505
128 2 0.795805 0.823114 0.076879
129 2 0.804976 0.77814 0.0745068
130 1 0.510534 0.437087 0.257439
131 2 0.503754 0.418734 0.273671
132 2 0.518497 0.418238 0.250267
133 1 0.134839 0.358887 0.880499
134 2 0.125087 0.351951 0.877999
135 2 0.139268 0.336115 0.899855
136 1 0.329144 0.517979 0.673952
137 2 0.326694 0.48703 0.683253
138 2 0.338097 0.517607 0.659107
139 1 0.368738 0.904042 0.901213
140 2 0.359856 0.898326 0.887007
141 2 0.373409 0.928621 0.884945
142 1 0.260417 0.491378 0.328856
143 2 0.257259 0.493221 0.36043
144 2 0.267747 0.51352 0.32398
145 1 0.296814 0.0955625 0.600877
146 2 0.292356 0.120767 0.616846
147 2 0.291066 0.0856795 0.575454
148 1 0.501056 0.102052 0.31009
149 2 0.491794 0.0895009 0.31081
150 2 0.507697 0.0771333 0.310462
151 1 0.893767 0.26068 0.195205
152 2 0.901052 0.246427 0.213037
153 2 0.896542 0.291483 0.186457
154 1 0.486933 0.919119 0.275301
155 2 0.479024 0.909985 0.257062
156 2 0.491415 0.891979 0.287604
157 1 0.665532 0.723007 0.276019
158 2 0.662026 0.710319 0.247496
159 2 0.675047 0.713636 0.280177
160 1 0.720732 0.38372 0.611482
161 2 0.715949 0.412459 0.617047
162 2 0.714488 0.358246 0.616862
163 1 0.627362 0.539842 0.14498
164 2 0.622617 0.5239 0.169615
165 2 0.632432 0.51781 0.126539
166 1 0.766867 0.365636 0.317031
167 2 0.774235 0.346938 0.329601
168 2 0.758149 0.356252 0.330396
169 1 0.0592273 0.578396 0.647744
170 2 0.0592849 0.551201 0.62847
171 2 0.0667685 0.576722 0.669571
172 1 0.0384475 0.526888 0.256161
173 2 0.0285383 0.531028 0.254443
174 2 0.0404997 0.495158 0.263746
175 1 0.639606 0.213296 0.665116
176 2 0.629816 0.214338 0.658407
177 2 0.640974 0.21325 0.698136
178 1 0.393266 0.878849 0.187679
179 2 0.388854 0.860639 0.163948
180 2 0.403167 0.878629 0.183001
181 1 0.332845 0.161832 0.915688
182 2 0.339251 0.178549 0.935068
183 2 0.33794 0.144267 0.893015
184 1 0.861708 0.297885 0.640031
185 2 0.857821 0.270716 0.654349
186 2 0.871186 0.291841 0.631291
187 1 0.801723 0.543396 0.538442
188 2 0.791972 0.547016 0.531995
189 2 0.803647 0.511487 0.545635
190 1 0.250275 0.146806 0.842772
191 2 0.253045 0.118655 0.858048
192 2 0.258399 0.163079 0.832147
193 1 0.885243 0.614464 0.357379
194 2 0.883973 0.594824 0.383978
195 2 0.893085 0.634523 0.362426
196 1 0.354251 0.694869 0.849079
197 2 0.349768 0.669939 0.865397
198 2 0.363742 0.68656 0.842662
199 1 0.898358 0.832726 0.497686
200 2 0.89099 0.850836 0.511099
201 2 0.906363 0.833679 0.517639
202 1 0.102529 0.213957 0.84536
203 2 0.093094 0.223848 0.840439
204 2 0.104958 0.190955 0.822635
205 1 0.601824 0.0817234 0.153586
206 2 0.602988 0.0667422 0.124064
207 2 0.610727 0.0918259 0.164908
208 1 0.657702 0.0680303 0.208397
209 2 0.659787 0.054682 0.23814
210 2 0.661859 0.0495099 0.184396
211 1 0.548444 0.667347 0.631329
212 2 0.538827 0.662784 0.623407
213 2 0.549179 0.675207 0.663629
214 1 0.237292 0.676602 0.272751
215 2 0.241587 0.679096 0.242753
216 2 0.227801 0.66673 0.269177
217 1 0.332958 0.71304 0.631255
218 2 0.323566 0.712545 0.64269
219 2 0.336674 0.682094 0.631443
220 1 0.834956 0.623224 0.554605
221 2 0.828962 0.627728 0.580904
222 2 0.833734 0.592352 0.542714
223 1 0.110023 0.38256 0.294254
224 2 0.116417 0.357413 0.28931
225 2 0.11153 0.406082 0.271176
226 1 0.254449 0.909869 0.407679
227 2 0.245145 0.904925 0.396503
228 2 0.259712 0.881697 0.404591
229 1 0.876311 0.608735 0.748728
230 2 0.873716 0.617189 0.717667
231 2 0.883728 0.628516 0.759149
232 1 0.501077 0.564781 0.492914
233 2 0.499172 0.538943 0.512994
234 2 0.507243 0.555107 0.468521
235 1 0.207366 0.691784 0.312613
236 2 0.207357 0.725021 0.310095
237 2 0.200676 0.679012 0.291386
238 1 0.0414087 0.612501 0.222993
239 2 0.0392237 0.58528 0.2408
240 2 0.0512288 0.613262 0.216747
241 1 0.920713 0.883863 0.863483
242 2 0.918744 0.851279 0.860984
243 2 0.912594 0.899827 0.874612
244 1 0.371552 0.0904635 0.861641
245 2 0.381507 0.087708 0.863195
246 2 0.368945 0.103645 0.832284
247 1 0.431098 0.900497 0.901073
248 2 0.421345 0.899626 0.908372
249 2 0.436364 0.904957 0.929057
250 1 0.838653 0.323205 0.40495
251 2 0.830909 0.3208 0.383999
252 2 0.842678 0.293041 0.409559
253 1 0.889058 0.330627 0.122402
254 2 0.886129 0.329218 0.0905617
255 2 0.881721 0.343614 0.140957
256 1 0.553267 0.874572 0.673509
257 2 0.543658 0.8806 0.666513
258 2 0.559071 0.894363 0.654932
259 1 0.569308 0.14992 0.599881
260 2 0.562325 0.172881 0.606368
261 2 0.567063 0.134243 0.571432
262 1 0.970452 0.188073 0.515886
263 2 0.962287 0.168828 0.515886
264 2 0.978617 0.168827 0.515886
265 1 0.840026 0.61497 0.803863
266 2 0.833763 0.619947 0.778357
267 2 0.848286 0.59973 0.792873
268 1 0.69581 0.372209 0.322341
269 2 0.688041 0.354011 0.311892
270 2 0.694623 0.379682 0.354583
271 1 0.793864 0.772916 0.82013
272 2 0.79622 0.741056 0.82599
273 2 0.801553 0.792434 0.828685
274 1 0.899364 0.506824 0.495563
275 2 0.892394 0.503363 0.519211
276 2 0.907949 0.493319 0.506043
277 1 0.784812 0.627709 0.671899
278 2 0.775503 0.631259 0.660253
279 2 0.790143 0.609124 0.650687
280 1 0.735614 0.800615 0.496494
281 2 0.738018 0.828963 0.512088
282 2 0.734912 0.806242 0.463726
283 1 0.379479 0.146905 0.566333
284 2 0.383435 0.156047 0.59555
285 2 0.38475 0.121578 0.55365
286 1 0.0535646 0.484391 0.547174
287 2 0.0456272 0.467776 0.535553
288 2 0.0611872 0.46324 0.551434
289 1 0.295664 0.580099 0.0890684
290 2 0.294951 0.549772 0.102696
291 2 0.303804 0.581507 0.0697588
292 1 0.0564931 0.774179 0.379269
293 2 0.0481286 0.755916 0.378862
294 2 0.0595975 0.777957 0.41073
295 1 0.13984 0.515761 0.735674
296 2 0.141302 0.493294 0.759812
297 2 0.144501 0.505795 0.707919
298 1 0.226918 0.606633 0.142501
299 2 0.221481 0.582875 0.127727
300 2 0.236641 0.600417 0.137812
ITEM: TIMESTEP
200
ITEM: NUMBER OF ATOMS
300
ITEM: BOX BOUNDS pp ff pp
0.0000000000000000e+00 1.0000000000000000e+02
0.0000000000000000e+00 3.0000000000000000e+01
0.0000000000000000e+00 3.0000000000000000e+01
ITEM: ATOMS id type xs ys zs
1 1 0.377892 0.887191 0.706245
2 2 0.369048 0.876703 0.69476
3 2 0.385163 0.867956 0.693845
4 1 0.585386 0.197231 0.208873
5 2 0.58979 0.173148 0.191104
6 2 0.587709 0.19356 0.241086
7 1 0.073481 0.820321 0.578604
8 2 0.0728893 0.836002 0.607953
9 2 0.0656894 0.799697 0.575259
10 1 0.696679 0.0864988 0.904309
11 2 0.698783 0.0749366 0.934776
12 2 0.70463 0.102688 0.892196
13 1 0.821535 0.245273 0.23047
14 2 0.831052 0.249449 0.221135
15 2 0.817901 0.217509 0.216556
16 1 0.195451 0.346125 0.543408
17 2 0.188221 0.323491 0.539162
18 2 0.204293 0.332527 0.535832
19 1 0.438652 0.316843 0.582199
20 2 0.446976 0.323455 0.564948
21 2 0.435669 0.344335 0.598213
22 1 0.154025 0.291194 0.377851
23 2 0.145217 0.293818 0.39341
24 2 0.155829 0.259176 0.370793
25 1 0.463309 0.734789 0.246554
26 2 0.462946 0.749788 0.21681
27 2 0.464305 0.701897 0.242283
28 1 0.515569 0.531021 0.100609
29 2 0.521649 0.553777 0.114118
30 2 0.520395 0.501938 0.0980518
31 1 0.600562 0.250815 0.0845028
32 2 0.605551 0.233107 0.0616771
33 2 0.595865 0.230094 0.105397
34 1 0.929816 0.881749 0.756552
35 2 0.935322 0.880798 0.784361
36 2 0.92014 0.884179 0.764605
37 1 0.309573 0.161507 0.658809
38 2 0.303619 0.137286 0.647382
39 2 0.316953 0.148115 0.676882
40 1 0.442989 0.182365 0.497673
41 2 0.452923 0.185443 0.499945
42 2 0.4386 0.20486 0.517447
43 1 0.0626686 0.843352 0.321338
44 2 0.0571842 0.818614 0.334179
45 2 0.0630861 0.86858 0.34308
46 1 0.650905 0.319973 0.528669
47 2 0.643382 0.308938 0.509684
48 2 0.651284 0.302199 0.55684
49 1 0.546698 0.224956 0.91163
50 2 0.548581 0.247842 0.888223
51 2 0.555153 0.217628 0.927849
52 1 0.765649 0.873145 0.855673
53 2 0.759891 0.870203 0.828578
54 2 0.773901 0.854711 0.851859
55 1 0.590618 0.853809 0.121356
56 2 0.586805 0.836425 0.1468
57 2 0.600437 0.847908 0.119118
58 1 0.209403 0.101042 0.334585
59 2 0.205753 0.131697 0.329754
60 2 0.201842 0.0795192 0.338142
61 1 0.396266 0.288271 0.772142
62 2 0.393372 0.310081 0.748853
63 2 0.404577 0.299386 0.78698
64 1 0.363033 0.300543 0.542584
65 2 0.358293 0.31517 0.517138
66 2 0.356338 0.286136 0.562718
67 1 0.15221 0.763839 0.121991
68 2 0.150899 0.795167 0.132506
69 2 0.144915 0.744548 0.134142
70 1 0.967333 0.737275 0.221332
71 2 0.972234 0.737579 0.192278
72 2 0.973916 0.736414 0.246409
73 1 0.0221476 0.774998 0.682061
74 2 0.0161113 0.781185 0.707906
75 2 0.0263907 0.745061 0.685909
76 1 0.723636 0.739384 0.12649
77 2 0.728972 0.757717 0.105073
78 2 0.716211 0.724141 0.110178
79 1 0.394265 0.130208 0.779053
80 2 0.396629 0.155686 0.759057
81 2 0.400728 0.10523 0.774237
82 1 0.617535 0.346306 0.10572
83 2 0.610742 0.333024 0.0851818
84 2 0.623904 0.322611 0.115669
85 1 0.315161 0.355905 0.703018
86 2 0.312251 0.344105 0.732645
87 2 0.31765 0.330488 0.683111
88 1 0.635437 0.834758 0.482646
89 2 0.629892 0.860571 0.472487
90 2 0.642249 0.827501 0.459348
91 1 0.138284 0.655776 0.725818
92 2 0.137013 0.624595 0.736813
93 2 0.145381 0.656161 0.702337
94 1 0.555719 0.71887 0.509016
95 2 0.552072 0.74986 0.507297
96 2 0.55532 0.708147 0.540549
97 1 0.523598 0.444428 0.0975881
98 2 0.514357 0.43785 0.0866818
99 2 0.528248 0.415862 0.104994
100 1 0.128018 0.103872 0.611192
101 2 0.129042 0.0888509 0.640752
102 2 0.125529 0.0812719 0.588137
103 1 0.321746 0.497612 0.852521
104 2 0.326408 0.526897 0.849072
105 2 0.313628 0.501572 0.87158
106 1 0.258137 0.441444 0.717487
107 2 0.254086 0.411953 0.709801
108 2 0.267907 0.437541 0.723438
109 1 0.236912 0.129438 0.340884
110 2 0.243324 0.117375 0.318331
111 2 0.227605 0.120331 0.332774
112 1 0.177372 0.871867 0.771015
113 2 0.174725 0.842599 0.784305
114 2 0.169271 0.887111 0.758791
115 1 0.62721 0.817429 0.766391
116 2 0.628871 0.792629 0.744818
117 2 0.633098 0.843298 0.758858
118 1 0.197376 0.830306 0.53842
119 2 0.201066 0.848989 0.563134
120 2 0.204459 0.825369 0.515416
121 1 0.889045 0.91181 0.0775843
122 2 0.881593 0.917298 0.0991229
123 2 0.897709 0.910083 0.0941384
124 1 0.130689 0.28602 0.435528
125 2 0.12096 0.291713 0.430335
126 2 0.131884 0.27016 0.464574
127 1 0.803996 0.815491 0.0741616
128 2 0.798517 0.82399 0.10072
129 2 0.798271 0.798992 0.052374
130 1 0.510101 0.434911 0.258915
131 2 0.507578 0.402675 0.260037
132 2 0.50812 0.447067 0.228587
133 1 0.132332 0.35779 0.867205
134 2 0.124582 0.339859 0.856154
135 2 0.134872 0.347428 0.897735
136 1 0.330758 0.50884 0.677782
137 2 0.320774 0.509213 0.67593
138 2 0.33373 0.481606 0.694252
139 1 0.369014 0.896247 0.887361
140 2 0.369425 0.912542 0.858314
141 2 0.359999 0.88225 0.890843
142 1 0.259005 0.489484 0.332592
143 2 0.249823 0.500112 0.340417
144 2 0.261405 0.500162 0.302046
145 1 0.298934 0.0929982 0.602749
146 2 0.303045 0.0632124 0.596737
147 2 0.288971 0.0903787 0.601634
148 1 0.496307 0.108157 0.311422
149 2 0.492588 0.0898498 0.336368
150 2 0.502328 0.0892604 0.292682
151 1 0.901735 0.22261 0.200587
152 2 0.902661 0.245918 0.224215
153 2 0.894568 0.231611 0.179155
154 1 0.486272 0.913737 0.275153
155 2 0.480218 0.888341 0.282829
156 2 0.495533 0.906999 0.285768
157 1 0.668749 0.714094 0.278232
158 2 0.674419 0.703229 0.253015
159 2 0.670032 0.694253 0.304673
160 1 0.719115 0.37728 0.608528
161 2 0.723064 0.399829 0.587808
162 2 0.716884 0.349583 0.591538
163 1 0.628563 0.558438 0.150207
164 2 0.63674 0.540314 0.143909
165 2 0.620698 0.544803 0.134785
166 1 0.710996 0.382813 0.395096
167 2 0.718249 0.403304 0.384764
168 2 0.707999 0.363708 0.369674
169 1 0.0584422 0.562869 0.620708
170 2 0.0573061 0.593239 0.607502
171 2 0.0606218 0.541077 0.596554
172 1 0.0420314 0.522287 0.251657
173 2 0.0330768 0.513564 0.239655
174 2 0.0468732 0.495076 0.262155
175 1 0.63551 0.204292 0.665463
176 2 0.627172 0.202072 0.683731
177 2 0.642758 0.186324 0.679766
178 1 0.391558 0.875384 0.17683
179 2 0.384178 0.894521 0.18865
180 2 0.400378 0.888304 0.185769
181 1 0.318752 0.159059 0.944583
182 2 0.323865 0.13115 0.951051
183 2 0.3243 0.1792 0.925516
184 1 0.860922 0.298172 0.637184
185 2 0.862041 0.299 0.670298
186 2 0.867801 0.277939 0.623923
187 1 0.804351 0.562194 0.55716
188 2 0.800288 0.578501 0.531435
189 2 0.798331 0.537185 0.566268
190 1 0.250528 0.137567 0.842812
191 2 0.250394 0.106027 0.85359
192 2 0.259829 0.145766 0.833724
193 1 0.883868 0.606045 0.369048
194 2 0.881849 0.595832 0.33804
195 2 0.892961 0.619893 0.369851
196 1 0.35359 0.689855 0.853669
197 2 0.349262 0.680067 0.882081
198 2 0.359113 0.717055 0.859351
199 1 0.925357 0.929924 0.386833
200 2 0.916533 0.936552 0.37262
201 2 0.932553 0.930902 0.363709
202 1 0.106027 0.23389 0.847006
203 2 0.097136 0.228481 0.861275
204 2 0.106586 0.216802 0.818447
205 1 0.601846 0.118365 0.167948
206 2 0.599334 0.0906607 0.151411
207 2 0.611683 0.118243 0.173947
208 1 0.661998 0.0593157 0.213823
209 2 0.658547 0.0379494 0.236677
210 2 0.67036 0.0470973 0.200222
211 1 0.549176 0.682522 0.612773
212 2 0.545709 0.652708 0.603358
213 2 0.548648 0.685147 0.645956
214 1 0.23755 0.662801 0.277385
215 2 0.238303 0.661102 0.244191
216 2 0.227972 0.667204 0.2859
217 1 0.334239 0.71944 0.645507
218 2 0.329975 0.709488 0.617047
219 2 0.338181 0.693109 0.661165
220 1 0.826327 0.608372 0.569865
221 2 0.822349 0.638033 0.577314
222 2 0.819008 0.586618 0.563337
223 1 0.106377 0.390865 0.287459
224 2 0.111964 0.372576 0.266729
225 2 0.112333 0.408526 0.307583
226 1 0.254009 0.905034 0.404348
227 2 0.252083 0.937325 0.399138
228 2 0.259458 0.901654 0.432092
229 1 0.878282 0.636586 0.758073
230 2 0.868599 0.632445 0.750846
231 2 0.88339 0.642299 0.729993
232 1 0.498852 0.553052 0.502594
233 2 0.50512 0.530674 0.489408
234 2 0.500932 0.583278 0.49037
235 1 0.209938 0.693747 0.304362
236 2 0.206427 0.68892 0.335198
237 2 0.207627 0.724562 0.294252
238 1 0.0411771 0.603406 0.227261
239 2 0.0430145 0.572726 0.238763
240 2 0.0457884 0.607567 0.197977
241 1 0.92175 0.884585 0.849198
242 2 0.918084 0.863322 0.871775
243 2 0.923224 0.914313 0.863452
244 1 0.367668 0.132625 0.819322
245 2 0.362348 0.160418 0.814402
246 2 0.377071 0.137482 0.809068
247 1 0.43031 0.897061 0.904234
248 2 0.420398 0.899453 0.90053
249 2 0.433735 0.924171 0.919913
250 1 0.838386 0.308231 0.398438
251 2 0.833465 0.302226 0.370049
252 2 0.834205 0.29083 0.423218
253 1 0.934633 0.354185 0.0312138
254 2 0.942151 0.338349 0.0464571
255 2 0.931507 0.336078 0.00524044
256 1 0.552887 0.869955 0.670154
257 2 0.551275 0.898316 0.686823
258 2 0.561215 0.872867 0.651932
259 1 0.572819 0.158901 0.611005
260 2 0.566251 0.136056 0.621484
261 2 0.571018 0.166205 0.57904
262 1 0.970452 0.188073 0.515886
263 2 0.962287 0.168828 0.515886
264 2 0.978617 0.168827 0.515886
265 1 0.823945 0.516586 0.928664
266 2 0.833533 0.510308 0.935756
267 2 0.823266 0.54551 0.912249
268 1 0.695426 0.358577 0.323814
269 2 0.693488 0.373237 0.353045
270 2 0.689791 0.372458 0.300031
271 1 0.791512 0.78576 0.817119
272 2 0.801124 0.783256 0.808273
273 2 0.789242 0.761333 0.8385
274 1 0.902107 0.507137 0.483155
275 2 0.895569 0.531475 0.476537
276 2 0.897333 0.477854 0.48382
277 1 0.782211 0.626482 0.647899
278 2 0.777722 0.596716 0.6468
279 2 0.791987 0.622335 0.653566
280 1 0.691585 0.773837 0.629116
281 2 0.699905 0.787182 0.641915
282 2 0.684834 0.769619 0.653341
283 1 0.380031 0.14217 0.561256
284 2 0.390024 0.142149 0.559955
285 2 0.376482 0.167143 0.542614
286 1 0.0580756 0.493777 0.557533
287 2 0.0481768 0.490373 0.554252
288 2 0.0626972 0.469484 0.540692
289 1 0.294808 0.575761 0.0917398
290 2 0.290735 0.565576 0.120429
291 2 0.293735 0.608777 0.0888599
292 1 0.0547719 0.76807 0.374001
293 2 0.0530068 0.756389 0.343341
294 2 0.0585869 0.743742 0.392909
295 1 0.138571 0.530192 0.744334
296 2 0.129812 0.515321 0.738204
297 2 0.144238 0.510234 0.763202
298 1 0.227934 0.615345 0.155242
299 2 0.223275 0.585898 0.156904
300 2 0.223416 0.634584 0.132567
ITEM: TIMESTEP
300
ITEM: NUMBER OF ATOMS
300
ITEM: BOX BOUNDS pp ff pp
0.0000000000000000e+00 1.0000000000000000e+02
0.0000000000000000e+00 3.0000000000000000e+01
0.0000000000000000e+00 3.0000000000000000e+01
ITEM: ATOMS id type xs ys zs
1 1 0.374349 0.879654 0.723404
2 2 0.372463 0.860133 0.697125
3 2 0.376962 0.910045 0.712839
4 1 0.582074 0.221924 0.193028
5 2 0.587483 0.196848 0.180492
6 2 0.577166 0.211396 0.220096
7 1 0.0702235 0.841639 0.576473
8 2 0.0770461 0.838019 0.600573
9 2 0.072122 0.820037 0.551889
10 1 0.694412 0.0929866 0.902584
11 2 0.699193 0.0882744 0.93148
12 2 0.69675 0.0684066 0.881461
13 1 0.822511 0.242456 0.245849
14 2 0.813607 0.247008 0.231376
15 2 0.829467 0.25982 0.229354
16 1 0.194794 0.354766 0.561209
17 2 0.199944 0.376277 0.542401
18 2 0.193145 0.368181 0.591225
19 1 0.442874 0.293578 0.546307
20 2 0.440818 0.32469 0.556115
21 2 0.446187 0.275905 0.572322
22 1 0.149182 0.298429 0.361905
23 2 0.143171 0.290674 0.387388
24 2 0.157774 0.281613 0.364773
25 1 0.467277 0.743154 0.246467
26 2 0.457773 0.739314 0.23684
27 2 0.470407 0.715389 0.26168
28 1 0.511295 0.513348 0.100358
29 2 0.518939 0.534756 0.0984646
30 2 0.514583 0.484015 0.111787
31 1 0.593176 0.262543 0.106347
32 2 0.590317 0.251762 0.136414
33 2 0.600231 0.285904 0.10986
34 1 0.927755 0.864269 0.744035
35 2 0.927495 0.890845 0.764137
36 2 0.921323 0.841268 0.755096
37 1 0.307701 0.178212 0.656753
38 2 0.304358 0.166925 0.627434
39 2 0.316042 0.161842 0.66512
40 1 0.441799 0.205039 0.495762
41 2 0.448526 0.205742 0.471107
42 2 0.440513 0.23584 0.507763
43 1 0.0625786 0.841079 0.330083
44 2 0.0601453 0.811193 0.342417
45 2 0.0724499 0.845663 0.332802
46 1 0.653197 0.316193 0.536616
47 2 0.644443 0.308076 0.522697
48 2 0.65585 0.2926 0.55844
49 1 0.54149 0.22577 0.90775
50 2 0.541874 0.19255 0.905322
51 2 0.549922 0.236979 0.921733
52 1 0.768566 0.850125 0.850404
53 2 0.765303 0.863065 0.821675
54 2 0.775972 0.828591 0.844249
55 1 0.590917 0.849653 0.113851
56 2 0.588874 0.834479 0.142739
57 2 0.599981 0.863637 0.115497
58 1 0.208122 0.122199 0.335405
59 2 0.217504 0.111009 0.332574
60 2 0.208215 0.152846 0.34851
61 1 0.398947 0.279076 0.785366
62 2 0.396279 0.301729 0.808145
63 2 0.39936 0.248962 0.799593
64 1 0.366211 0.275936 0.545087
65 2 0.358705 0.297293 0.539704
66 2 0.373657 0.291644 0.560848
67 1 0.152398 0.761503 0.121083
68 2 0.157239 0.741086 0.100252
69 2 0.143581 0.769948 0.107818
70 1 0.968277 0.728971 0.219294
71 2 0.96274 0.707298 0.236638
72 2 0.977365 0.716083 0.214071
73 1 0.0236069 0.77185 0.683559
74 2 0.0168726 0.796002 0.688446
75 2 0.0310526 0.783428 0.664557
76 1 0.72275 0.739618 0.131255
77 2 0.722443 0.749677 0.0994922
78 2 0.715284 0.71818 0.136926
79 1 0.398124 0.114115 0.794753
80 2 0.407308 0.113674 0.781574
81 2 0.398651 0.106629 0.827188
82 1 0.621615 0.322848 0.105243
83 2 0.630899 0.313016 0.0977045
84 2 0.620994 0.356013 0.102619
85 1 0.312457 0.370535 0.69261
86 2 0.308825 0.354733 0.719345
87 2 0.311302 0.351313 0.665651
88 1 0.638577 0.837824 0.489778
89 2 0.629076 0.8386 0.500142
90 2 0.639534 0.815229 0.46548
91 1 0.139115 0.651676 0.717395
92 2 0.138719 0.619779 0.726982
93 2 0.145812 0.654992 0.692865
94 1 0.552263 0.707413 0.489706
95 2 0.553364 0.739216 0.498993
96 2 0.55041 0.688642 0.51655
97 1 0.525296 0.425619 0.107145
98 2 0.525402 0.419929 0.0743029
99 2 0.528468 0.398416 0.123248
100 1 0.130342 0.0990158 0.624024
101 2 0.128856 0.0660725 0.622879
102 2 0.130129 0.11144 0.593101
103 1 0.322235 0.484631 0.843795
104 2 0.3186 0.480857 0.812972
105 2 0.32337 0.517094 0.850348
106 1 0.256885 0.451536 0.71208
107 2 0.255174 0.421706 0.698342
108 2 0.26602 0.451884 0.725641
109 1 0.23532 0.107284 0.351636
110 2 0.234649 0.0827662 0.374108
111 2 0.244581 0.119851 0.351938
112 1 0.177208 0.860027 0.771237
113 2 0.175122 0.833853 0.751802
114 2 0.168751 0.876252 0.778526
115 1 0.629629 0.821327 0.775515
116 2 0.62176 0.815143 0.755898
117 2 0.634532 0.848049 0.764116
118 1 0.201993 0.827707 0.515102
119 2 0.202563 0.856825 0.531216
120 2 0.211083 0.813918 0.51346
121 1 0.928282 0.93585 0.958492
122 2 0.920108 0.954689 0.954779
123 2 0.926315 0.91086 0.979554
124 1 0.134242 0.303466 0.434961
125 2 0.132045 0.298051 0.467026
126 2 0.127887 0.32591 0.422363
127 1 0.80348 0.813861 0.0729594
128 2 0.797006 0.802797 0.0958299
129 2 0.801114 0.845109 0.0644432
130 1 0.511221 0.436362 0.249631
131 2 0.506126 0.409063 0.258429
132 2 0.505031 0.462531 0.248905
133 1 0.130419 0.337633 0.859615
134 2 0.123482 0.314018 0.863947
135 2 0.136629 0.337838 0.88574
136 1 0.324356 0.487688 0.685269
137 2 0.317196 0.492816 0.662572
138 2 0.325407 0.454955 0.690508
139 1 0.372579 0.895152 0.879263
140 2 0.378858 0.879084 0.858892
141 2 0.363353 0.89441 0.866431
142 1 0.256239 0.490533 0.333638
143 2 0.248129 0.498631 0.315897
144 2 0.264332 0.492103 0.314122
145 1 0.299834 0.105369 0.601215
146 2 0.295892 0.0993095 0.571186
147 2 0.301002 0.0766279 0.617644
148 1 0.491875 0.115705 0.317426
149 2 0.482948 0.10681 0.329528
150 2 0.496889 0.08848 0.30791
151 1 0.907116 0.199586 0.207763
152 2 0.901478 0.182631 0.186074
153 2 0.902427 0.201144 0.237164
154 1 0.484271 0.904645 0.272086
155 2 0.477385 0.895989 0.249518
156 2 0.491755 0.882542 0.2716
157 1 0.66705 0.725848 0.274102
158 2 0.675954 0.734361 0.261541
159 2 0.668146 0.699782 0.294555
160 1 0.719868 0.368086 0.595885
161 2 0.715554 0.338245 0.592162
162 2 0.714802 0.385809 0.618511
163 1 0.638777 0.572228 0.159248
164 2 0.6302 0.555636 0.163532
165 2 0.636946 0.601031 0.14362
166 1 0.667592 0.395041 0.454821
167 2 0.668483 0.413621 0.482336
168 2 0.664434 0.364518 0.463109
169 1 0.0605246 0.547205 0.608497
170 2 0.0699204 0.558615 0.608407
171 2 0.0604701 0.515175 0.599268
172 1 0.0437105 0.52896 0.246419
173 2 0.035572 0.530941 0.265686
174 2 0.0451864 0.497253 0.237385
175 1 0.634576 0.203772 0.655116
176 2 0.62485 0.196015 0.655086
177 2 0.638763 0.193072 0.683431
178 1 0.390423 0.871615 0.161795
179 2 0.383297 0.878305 0.139388
180 2 0.39834 0.891193 0.156191
181 1 0.306978 0.154314 0.970271
182 2 0.308688 0.124175 0.957223
183 2 0.302456 0.17356 0.947611
184 1 0.859022 0.297398 0.633984
185 2 0.866897 0.314639 0.622813
186 2 0.850708 0.308516 0.61917
187 1 0.803331 0.549478 0.57219
188 2 0.800209 0.559303 0.602295
189 2 0.800775 0.517619 0.567342
190 1 0.255867 0.139699 0.832071
191 2 0.246816 0.139484 0.817899
192 2 0.255013 0.132023 0.864383
193 1 0.890335 0.581628 0.378183
194 2 0.881594 0.578124 0.362374
195 2 0.896235 0.602183 0.360808
196 1 0.352539 0.687911 0.856005
197 2 0.351666 0.659003 0.872345
198 2 0.362218 0.695576 0.852648
199 1 0.949982 0.943452 0.295171
200 2 0.946284 0.912481 0.295098
201 2 0.943385 0.964128 0.309317
202 1 0.10813 0.248984 0.850945
203 2 0.0981636 0.250815 0.848912
204 2 0.111688 0.232547 0.824483
205 1 0.604152 0.139878 0.164298
206 2 0.605615 0.150974 0.133246
207 2 0.612906 0.130646 0.177509
208 1 0.664133 0.0430878 0.213931
209 2 0.661246 0.0741129 0.221413
210 2 0.673799 0.0392975 0.221584
211 1 0.54787 0.688437 0.626198
212 2 0.539917 0.670395 0.635302
213 2 0.550853 0.707285 0.651829
214 1 0.235626 0.647907 0.281788
215 2 0.230515 0.639162 0.254504
216 2 0.230012 0.668108 0.300571
217 1 0.336235 0.713519 0.655286
218 2 0.334079 0.68099 0.654124
219 2 0.334643 0.724975 0.686136
220 1 0.818174 0.629768 0.605425
221 2 0.826532 0.629518 0.623723
222 2 0.818574 0.605306 0.58282
223 1 0.107773 0.387143 0.277997
224 2 0.111542 0.399608 0.24975
225 2 0.114094 0.364543 0.290505
226 1 0.253537 0.906584 0.408857
227 2 0.249815 0.911531 0.378317
228 2 0.255748 0.874311 0.412761
229 1 0.875224 0.680147 0.767792
230 2 0.881478 0.658646 0.753156
231 2 0.879284 0.691156 0.796197
232 1 0.500937 0.559746 0.505025
233 2 0.504675 0.529027 0.50852
234 2 0.507135 0.578056 0.486342
235 1 0.211671 0.698268 0.309222
236 2 0.20286 0.693612 0.294162
237 2 0.211811 0.728331 0.323614
238 1 0.0381528 0.618767 0.232137
239 2 0.0409161 0.587108 0.237035
240 2 0.0443941 0.63316 0.210431
241 1 0.91847 0.882424 0.862723
242 2 0.916905 0.911142 0.878821
243 2 0.926202 0.866448 0.876565
244 1 0.372691 0.165894 0.800202
245 2 0.378519 0.141537 0.788351
246 2 0.375912 0.195271 0.788678
247 1 0.42879 0.899987 0.905489
248 2 0.419143 0.897618 0.913942
249 2 0.434385 0.901566 0.933071
250 1 0.839347 0.298258 0.376932
251 2 0.847719 0.316399 0.375102
252 2 0.838698 0.278475 0.350192
253 1 0.973146 0.367666 0.953049
254 2 0.970851 0.378497 0.983631
255 2 0.981897 0.351557 0.95394
256 1 0.553813 0.8613 0.667158
257 2 0.550948 0.870018 0.69788
258 2 0.557865 0.887639 0.651828
259 1 0.572635 0.150533 0.606227
260 2 0.568102 0.150488 0.63594
261 2 0.570887 0.121588 0.590756
262 1 0.970452 0.188073 0.515886
263 2 0.962287 0.168828 0.515886
264 2 0.978617 0.168827 0.515886
265 1 0.811493 0.446161 0.022363
266 2 0.804986 0.471244 0.0189666
267 2 0.807688 0.41857 0.0086131
268 1 0.691023 0.352091 0.31946
269 2 0.693176 0.321744 0.331237
270 2 0.684833 0.3676 0.340552
271 1 0.792696 0.798417 0.801855
272 2 0.80093 0.784065 0.814177
273 2 0.792776 0.79618 0.768598
274 1 0.893078 0.523919 0.468466
275 2 0.891358 0.50424 0.442179
276 2 0.893152 0.555774 0.458653
277 1 0.789023 0.616753 0.628155
278 2 0.787249 0.62397 0.596154
279 2 0.795879 0.637787 0.64025
280 1 0.659132 0.759137 0.752268
281 2 0.655608 0.75126 0.782452
282 2 0.659675 0.731631 0.733525
283 1 0.375805 0.153119 0.555924
284 2 0.384492 0.166647 0.546459
285 2 0.369748 0.177014 0.567439
286 1 0.059501 0.468248 0.568497
287 2 0.050299 0.460302 0.578848
288 2 0.0611972 0.454293 0.538759
289 1 0.290904 0.574627 0.101191
290 2 0.289009 0.543728 0.111982
291 2 0.300739 0.580449 0.102734
292 1 0.0559815 0.75305 0.367075
293 2 0.0627021 0.734886 0.350362
294 2 0.0491254 0.732863 0.38054
295 1 0.138407 0.547013 0.762377
296 2 0.134234 0.536685 0.790855
297 2 0.136408 0.525092 0.738167
298 1 0.226021 0.633449 0.168847
299 2 0.228736 0.602161 0.161757
300 2 0.233655 0.654059 0.162611
ITEM: TIMESTEP
400
ITEM: NUMBER OF ATOMS
300
ITEM: BOX BOUNDS pp ff pp
0.0000000000000000e+00 1.0000000000000000e+02
0.0000000000000000e+00 3.0000000000000000e+01
0.0000000000000000e+00 3.0000000000000000e+01
ITEM: ATOMS id type xs ys zs
1 1 0.370767 0.876422 0.772765
2 2 0.374838 0.853843 0.75234
3 2 0.363679 0.893369 0.756465
4 1 0.581842 0.222301 0.218688
5 2 0.585675 0.216422 0.188467
6 2 0.572622 0.209513 0.220439
7 1 0.0644866 0.857991 0.575695
8 2 0.0661488 0.826236 0.584181
9 2 0.0605299 0.859178 0.545105
10 1 0.691042 0.0967843 0.895674
11 2 0.69034 0.0677667 0.91191
12 2 0.700595 0.10662 0.895031
13 1 0.826781 0.252107 0.280359
14 2 0.821032 0.267074 0.257558
15 2 0.828864 0.221065 0.270391
16 1 0.192868 0.378501 0.582661
17 2 0.192266 0.346228 0.574568
18 2 0.198757 0.394239 0.560794
19 1 0.445648 0.300906 0.559678
20 2 0.45006 0.3306 0.563294
21 2 0.437352 0.299865 0.578264
22 1 0.145756 0.295461 0.354547
23 2 0.142137 0.309238 0.382401
24 2 0.151505 0.269361 0.362459
25 1 0.469819 0.771401 0.254272
26 2 0.467085 0.766313 0.222615
27 2 0.468144 0.743745 0.272023
28 1 0.50356 0.482992 0.114627
29 2 0.498106 0.482038 0.0867038
30 2 0.512679 0.470747 0.10852
31 1 0.590524 0.269766 0.106007
32 2 0.583761 0.293713 0.100586
33 2 0.599576 0.280652 0.0969372
34 1 0.925815 0.846323 0.780901
35 2 0.926897 0.859895 0.811132
36 2 0.920579 0.818038 0.783432
37 1 0.313664 0.194451 0.647491
38 2 0.311647 0.166279 0.63099
39 2 0.320526 0.188388 0.670969
40 1 0.438084 0.182671 0.46901
41 2 0.434419 0.212256 0.478317
42 2 0.448072 0.183467 0.470385
43 1 0.0597898 0.841381 0.348744
44 2 0.0567314 0.809651 0.348132
45 2 0.069782 0.842368 0.347875
46 1 0.659588 0.320606 0.544769
47 2 0.656571 0.297525 0.566615
48 2 0.666509 0.307501 0.52459
49 1 0.540596 0.224633 0.926182
50 2 0.540344 0.23124 0.893521
51 2 0.546621 0.198618 0.931742
52 1 0.777088 0.820726 0.847811
53 2 0.776002 0.82216 0.880916
54 2 0.768078 0.819926 0.833375
55 1 0.588383 0.854192 0.105165
56 2 0.58711 0.825712 0.121957
57 2 0.598155 0.860684 0.102353
58 1 0.209455 0.13495 0.326691
59 2 0.217335 0.123861 0.343958
60 2 0.202783 0.148285 0.347637
61 1 0.39577 0.283467 0.808322
62 2 0.388612 0.305228 0.816579
63 2 0.404005 0.300019 0.799175
64 1 0.36961 0.267094 0.531482
65 2 0.363164 0.279605 0.509279
66 2 0.374553 0.292018 0.54626
67 1 0.160138 0.745083 0.129798
68 2 0.152414 0.725162 0.136964
69 2 0.157079 0.776818 0.129699
70 1 0.961746 0.721456 0.225224
71 2 0.967008 0.730569 0.198384
72 2 0.955486 0.746022 0.233727
73 1 0.023747 0.774916 0.674221
74 2 0.0268632 0.760182 0.702259
75 2 0.0316267 0.781725 0.65486
76 1 0.726034 0.748664 0.120189
77 2 0.728168 0.768546 0.0943975
78 2 0.734417 0.73403 0.130972
79 1 0.402423 0.108344 0.793485
80 2 0.399554 0.0785305 0.782048
81 2 0.408321 0.104253 0.820089
82 1 0.621981 0.305559 0.114823
83 2 0.620536 0.322079 0.143372
84 2 0.631724 0.305592 0.107311
85 1 0.306443 0.366745 0.691479
86 2 0.304038 0.356432 0.722146
87 2 0.313986 0.34826 0.679759
88 1 0.641668 0.845709 0.494112
89 2 0.636454 0.818145 0.501131
90 2 0.648545 0.838786 0.470922
91 1 0.141052 0.620879 0.720839
92 2 0.140016 0.594583 0.741031
93 2 0.136021 0.615443 0.69255
94 1 0.547715 0.689225 0.495917
95 2 0.556157 0.707051 0.494676
96 2 0.544908 0.68543 0.527684
97 1 0.528228 0.42136 0.110717
98 2 0.527948 0.390295 0.0986676
99 2 0.533715 0.421925 0.138579
100 1 0.13347 0.108446 0.623361
101 2 0.124336 0.095938 0.618103
102 2 0.139081 0.0858661 0.63922
103 1 0.316589 0.475025 0.811035
104 2 0.320215 0.47098 0.780234
105 2 0.317606 0.506893 0.820203
106 1 0.25283 0.460622 0.713398
107 2 0.248757 0.431889 0.703341
108 2 0.261079 0.454305 0.731151
109 1 0.231597 0.09505 0.359021
110 2 0.234864 0.0743097 0.382735
111 2 0.233179 0.0814204 0.329062
112 1 0.177678 0.851163 0.763314
113 2 0.168968 0.837552 0.754205
114 2 0.176607 0.866223 0.792837
115 1 0.627981 0.828228 0.770406
116 2 0.63766 0.821133 0.774867
117 2 0.622403 0.807177 0.788357
118 1 0.205946 0.833502 0.501175
119 2 0.205611 0.849668 0.472046
120 2 0.21543 0.831447 0.511537
121 1 0.958151 0.921766 0.839658
122 2 0.953635 0.915631 0.810558
123 2 0.967628 0.911218 0.838266
124 1 0.136713 0.324281 0.432322
125 2 0.136601 0.357314 0.436771
126 2 0.1275 0.312119 0.436803
127 1 0.801819 0.811137 0.0689671
128 2 0.810568 0.798618 0.058775
129 2 0.803037 0.843041 0.0777298
130 1 0.512156 0.445435 0.227247
131 2 0.505747 0.41994 0.22507
132 2 0.510519 0.466677 0.202145
133 1 0.138656 0.374354 0.853439
134 2 0.147622 0.359646 0.852217
135 2 0.131872 0.352643 0.864772
136 1 0.323826 0.48857 0.722531
137 2 0.319585 0.518741 0.723537
138 2 0.31898 0.469459 0.700512
139 1 0.382285 0.904359 0.856337
140 2 0.381331 0.892304 0.825423
141 2 0.375646 0.889534 0.876376
142 1 0.251908 0.497255 0.3345
143 2 0.253085 0.516705 0.307715
144 2 0.260756 0.492707 0.349347
145 1 0.299757 0.119902 0.602337
146 2 0.301606 0.0886117 0.612032
147 2 0.294523 0.119501 0.573936
148 1 0.493091 0.119127 0.311086
149 2 0.488613 0.148291 0.317229
150 2 0.486156 0.0957849 0.305442
151 1 0.909707 0.171435 0.218207
152 2 0.912063 0.184728 0.247749
153 2 0.909233 0.195544 0.195242
154 1 0.483441 0.881216 0.2656
155 2 0.47349 0.884319 0.266729
156 2 0.485951 0.849384 0.270874
157 1 0.667483 0.739801 0.273632
158 2 0.670109 0.767642 0.289736
159 2 0.675337 0.719237 0.271956
160 1 0.71993 0.363379 0.588665
161 2 0.716904 0.340187 0.61038
162 2 0.712004 0.380313 0.577426
163 1 0.642117 0.578633 0.16823
164 2 0.645676 0.60978 0.168784
165 2 0.646894 0.561096 0.144777
166 1 0.623879 0.38321 0.507823
167 2 0.630744 0.403142 0.494031
168 2 0.628048 0.365865 0.532665
169 1 0.064361 0.543195 0.610504
170 2 0.0741981 0.544989 0.616221
171 2 0.0625464 0.519496 0.587857
172 1 0.0460016 0.522358 0.239488
173 2 0.0545292 0.518377 0.256437
174 2 0.0424805 0.492538 0.230317
175 1 0.639406 0.218315 0.631734
176 2 0.629596 0.222238 0.626597
177 2 0.641468 0.223382 0.663955
178 1 0.390143 0.863318 0.149456
179 2 0.391634 0.864871 0.116532
180 2 0.398627 0.871008 0.165337
181 1 0.297009 0.165702 0.980889
182 2 0.302589 0.141615 0.967291
183 2 0.29611 0.160273 0.0136407
184 1 0.857144 0.285577 0.630916
185 2 0.853637 0.296021 0.601498
186 2 0.8527 0.256891 0.639208
187 1 0.807183 0.533586 0.58076
188 2 0.806684 0.550679 0.609328
189 2 0.804355 0.502063 0.586109
190 1 0.258318 0.147146 0.823051
191 2 0.263737 0.16097 0.847418
192 2 0.252748 0.122477 0.835612
193 1 0.900068 0.581106 0.378122
194 2 0.905472 0.562502 0.357135
195 2 0.898284 0.61085 0.3643
196 1 0.349644 0.676612 0.858905
197 2 0.350117 0.683772 0.891422
198 2 0.357924 0.687572 0.843764
199 1 0.972025 0.890025 0.188245
200 2 0.976499 0.862039 0.177974
201 2 0.975792 0.916048 0.171625
202 1 0.102583 0.230842 0.839267
203 2 0.0946487 0.223516 0.858187
204 2 0.0998516 0.231463 0.807207
205 1 0.594663 0.186842 0.132835
206 2 0.590747 0.214876 0.120391
207 2 0.599596 0.17062 0.108803
208 1 0.66989 0.0399306 0.219793
209 2 0.679777 0.0406607 0.21486
210 2 0.667191 0.00959309 0.230272
211 1 0.546027 0.708598 0.626645
212 2 0.544296 0.688487 0.652594
213 2 0.547587 0.73965 0.637595
214 1 0.233029 0.641605 0.294654
215 2 0.231378 0.617574 0.27222
216 2 0.224784 0.660165 0.298024
217 1 0.337648 0.689511 0.660472
218 2 0.330422 0.689214 0.637433
219 2 0.337321 0.661212 0.678053
220 1 0.808864 0.649774 0.639583
221 2 0.809499 0.67109 0.614043
222 2 0.814127 0.66155 0.665365
223 1 0.111402 0.376721 0.269076
224 2 0.113944 0.347087 0.281769
225 2 0.11957 0.395711 0.266058
226 1 0.251661 0.900131 0.412083
227 2 0.253577 0.926777 0.3931
228 2 0.25924 0.878512 0.409744
229 1 0.876704 0.719121 0.762559
230 2 0.883436 0.694921 0.767226
231 2 0.880714 0.748456 0.771037
232 1 0.502828 0.571741 0.496847
233 2 0.512305 0.561174 0.498098
234 2 0.502582 0.602955 0.48518
235 1 0.211003 0.70072 0.313829
236 2 0.211525 0.716486 0.343146
237 2 0.203558 0.713653 0.295716
238 1 0.038171 0.612996 0.247563
239 2 0.0395744 0.580027 0.246056
240 2 0.0284492 0.619806 0.243745
241 1 0.927967 0.910524 0.859073
242 2 0.937831 0.915097 0.856062
243 2 0.92398 0.936117 0.875791
244 1 0.385145 0.174085 0.800544
245 2 0.391943 0.151226 0.791871
246 2 0.389386 0.204272 0.80061
247 1 0.422399 0.8925 0.905522
248 2 0.414686 0.871384 0.907592
249 2 0.419007 0.923163 0.898965
250 1 0.834905 0.292583 0.355095
251 2 0.832123 0.274422 0.328728
252 2 0.831238 0.27885 0.382899
253 1 0.0117561 0.381286 0.879509
254 2 0.00243199 0.388455 0.869828
255 2 0.0157209 0.407727 0.894913
256 1 0.556429 0.838464 0.662599
257 2 0.555247 0.865657 0.643727
258 2 0.565257 0.839928 0.678189
259 1 0.569933 0.131584 0.610541
260 2 0.560128 0.128065 0.61606
261 2 0.571427 0.14105 0.578971
262 1 0.970159 0.186709 0.515045
263 2 0.96703 0.17966 0.54591
264 2 0.979826 0.178707 0.512105
265 1 0.796594 0.380219 0.109981
266 2 0.795473 0.391028 0.0786712
267 2 0.805374 0.390761 0.121958
268 1 0.686447 0.334526 0.342327
269 2 0.678527 0.334479 0.321978
270 2 0.692105 0.30775 0.33612
271 1 0.792117 0.791823 0.775813
272 2 0.786493 0.803011 0.801004
273 2 0.79533 0.76103 0.782755
274 1 0.882469 0.557801 0.481192
275 2 0.881082 0.527331 0.46849
276 2 0.886037 0.578022 0.457513
277 1 0.789963 0.599421 0.595592
278 2 0.79425 0.577367 0.575084
279 2 0.796984 0.619272 0.608608
280 1 0.627252 0.738322 0.876607
281 2 0.627857 0.709852 0.859389
282 2 0.619657 0.736469 0.898214
283 1 0.372377 0.14789 0.541107
284 2 0.381752 0.137714 0.546687
285 2 0.372181 0.181154 0.539071
286 1 0.0565925 0.465001 0.57349
287 2 0.048226 0.454453 0.588392
288 2 0.0581645 0.447167 0.545821
289 1 0.290361 0.576195 0.100373
290 2 0.288838 0.545392 0.112059
291 2 0.289253 0.576259 0.0672454
292 1 0.0596152 0.74819 0.358647
293 2 0.0685821 0.736049 0.35026
294 2 0.0536439 0.723172 0.368083
295 1 0.135967 0.54643 0.766811
296 2 0.139006 0.551808 0.798108
297 2 0.131207 0.517163 0.765142
298 1 0.22339 0.644302 0.155026
299 2 0.230588 0.66418 0.16687
300 2 0.227028 0.625958 0.129976
ITEM: TIMESTEP
500
ITEM: NUMBER OF ATOMS
300
ITEM: BOX BOUNDS pp ff pp
0.0000000000000000e+00 1.0000000000000000e+02
0.0000000000000000e+00 3.0000000000000000e+01
0.0000000000000000e+00 3.0000000000000000e+01
ITEM: ATOMS id type xs ys zs
1 1 0.368207 0.871752 0.820693
2 2 0.368044 0.847315 0.79803
3 2 0.358876 0.878281 0.830743
4 1 0.595434 0.228317 0.218823
5 2 0.593305 0.22028 0.187261
6 2 0.589336 0.211696 0.239358
7 1 0.0587791 0.880069 0.575391
8 2 0.052731 0.904474 0.585833
9 2 0.0535135 0.851971 0.571708
10 1 0.688374 0.0997348 0.894365
11 2 0.680378 0.083729 0.906392
12 2 0.690331 0.126312 0.913397
13 1 0.829308 0.24191 0.290159
14 2 0.832468 0.245941 0.258792
15 2 0.826389 0.210345 0.294642
16 1 0.195157 0.369728 0.563204
17 2 0.187358 0.375826 0.583156
18 2 0.196809 0.336881 0.561856
19 1 0.444943 0.30331 0.570849
20 2 0.446893 0.33599 0.571769
21 2 0.446639 0.290007 0.600885
22 1 0.142241 0.298655 0.345997
23 2 0.138017 0.310505 0.37379
24 2 0.143917 0.265974 0.349436
25 1 0.470445 0.770021 0.243413
26 2 0.470619 0.773436 0.21026
27 2 0.467983 0.738668 0.25121
28 1 0.497117 0.445704 0.0942714
29 2 0.497752 0.464127 0.0665728
30 2 0.506252 0.441477 0.107158
31 1 0.592807 0.294582 0.0841919
32 2 0.588314 0.324271 0.0865198
33 2 0.6022 0.297024 0.0953715
34 1 0.931452 0.849282 0.832164
35 2 0.923118 0.847418 0.850491
36 2 0.934397 0.881068 0.830073
37 1 0.319031 0.207443 0.659237
38 2 0.314012 0.181439 0.646787
39 2 0.328855 0.201504 0.657382
40 1 0.437232 0.176816 0.449203
41 2 0.442706 0.202748 0.438924
42 2 0.431986 0.185543 0.476206
43 1 0.0553769 0.829301 0.365912
44 2 0.0614707 0.802981 0.368308
45 2 0.0601878 0.856678 0.376133
46 1 0.659771 0.309261 0.569243
47 2 0.653363 0.284334 0.575034
48 2 0.654824 0.338231 0.569181
49 1 0.541523 0.234757 0.939602
50 2 0.53966 0.208736 0.919714
51 2 0.55005 0.229516 0.956208
52 1 0.784816 0.796132 0.846479
53 2 0.790084 0.801472 0.874306
54 2 0.775667 0.785324 0.854488
55 1 0.588052 0.838813 0.0985556
56 2 0.595995 0.835938 0.1186
57 2 0.582357 0.864229 0.108797
58 1 0.213481 0.147303 0.325146
59 2 0.218396 0.127997 0.346824
60 2 0.209723 0.173759 0.341092
61 1 0.400348 0.311797 0.818319
62 2 0.397209 0.342408 0.826354
63 2 0.398233 0.290758 0.843194
64 1 0.368493 0.253418 0.520158
65 2 0.3742 0.280628 0.523148
66 2 0.359194 0.260368 0.530252
67 1 0.163661 0.736595 0.135566
68 2 0.166136 0.713026 0.157646
69 2 0.155854 0.753966 0.14706
70 1 0.95461 0.725974 0.232392
71 2 0.954023 0.713639 0.201487
72 2 0.964176 0.726693 0.242072
73 1 0.0277846 0.761786 0.651062
74 2 0.0353557 0.756221 0.672115
75 2 0.0298256 0.747748 0.621605
76 1 0.732622 0.75843 0.108564
77 2 0.729299 0.747804 0.0789756
78 2 0.730154 0.790473 0.112653
79 1 0.399264 0.091831 0.79129
80 2 0.395244 0.0894711 0.760861
81 2 0.400204 0.0613636 0.804445
82 1 0.620859 0.293365 0.136391
83 2 0.613472 0.276475 0.151207
84 2 0.628532 0.296546 0.157528
85 1 0.309851 0.355536 0.694438
86 2 0.303536 0.340672 0.673295
87 2 0.316514 0.333274 0.705491
88 1 0.637906 0.839704 0.495427
89 2 0.643985 0.864431 0.485986
90 2 0.639115 0.833859 0.527995
91 1 0.135422 0.590876 0.7201
92 2 0.134672 0.572914 0.748068
93 2 0.12637 0.601971 0.711286
94 1 0.547947 0.669885 0.538241
95 2 0.541395 0.67874 0.514665
96 2 0.547667 0.692035 0.563133
97 1 0.524092 0.434519 0.134532
98 2 0.531146 0.411143 0.137969
99 2 0.520445 0.442539 0.164514
100 1 0.137718 0.12812 0.619643
101 2 0.13806 0.125867 0.65288
102 2 0.13501 0.0987065 0.606817
103 1 0.307449 0.46062 0.811925
104 2 0.308752 0.489364 0.795615
105 2 0.312954 0.436799 0.797539
106 1 0.252161 0.45173 0.711735
107 2 0.256734 0.441416 0.683943
108 2 0.256942 0.439507 0.738338
109 1 0.228669 0.0935386 0.378434
110 2 0.238643 0.0958319 0.379124
111 2 0.22602 0.063345 0.36741
112 1 0.179032 0.840241 0.748685
113 2 0.177161 0.811341 0.764079
114 2 0.170608 0.851794 0.734935
115 1 0.624612 0.82253 0.77523
116 2 0.629676 0.835213 0.801024
117 2 0.620326 0.847271 0.758056
118 1 0.211972 0.837487 0.476188
119 2 0.219869 0.857578 0.480001
120 2 0.208168 0.829992 0.50609
121 1 0.960512 0.892265 0.742456
122 2 0.960052 0.893568 0.709184
123 2 0.954779 0.867282 0.753489
124 1 0.137526 0.337996 0.424446
125 2 0.145214 0.357592 0.432828
126 2 0.131617 0.333517 0.450962
127 1 0.800656 0.80934 0.0592
128 2 0.808958 0.792409 0.0668552
129 2 0.796534 0.821365 0.0870878
130 1 0.513425 0.426609 0.215365
131 2 0.510749 0.427233 0.247476
132 2 0.507364 0.406056 0.198618
133 1 0.139443 0.406799 0.852294
134 2 0.145331 0.394048 0.828562
135 2 0.139471 0.386615 0.878822
136 1 0.324207 0.487741 0.700856
137 2 0.320443 0.45799 0.692577
138 2 0.323243 0.508701 0.675137
139 1 0.389338 0.922042 0.836594
140 2 0.383214 0.898127 0.825522
141 2 0.386842 0.951118 0.822576
142 1 0.249062 0.522288 0.325985
143 2 0.253258 0.520898 0.356209
144 2 0.240758 0.54081 0.327395
145 1 0.30141 0.152536 0.607936
146 2 0.298537 0.160491 0.577014
147 2 0.303164 0.119766 0.609672
148 1 0.486748 0.145383 0.312133
149 2 0.480298 0.135639 0.335667
150 2 0.48172 0.153878 0.284601
151 1 0.913329 0.150225 0.238365
152 2 0.909527 0.15486 0.268844
153 2 0.922112 0.165982 0.235993
154 1 0.485016 0.873218 0.266237
155 2 0.475974 0.883564 0.276023
156 2 0.484422 0.841677 0.255639
157 1 0.670213 0.751769 0.273114
158 2 0.668318 0.735381 0.301446
159 2 0.679429 0.744289 0.262564
160 1 0.722564 0.360017 0.576763
161 2 0.713415 0.373091 0.573557
162 2 0.722912 0.330577 0.561174
163 1 0.640501 0.571872 0.174577
164 2 0.636127 0.559553 0.14725
165 2 0.64389 0.602589 0.168255
166 1 0.591523 0.364755 0.551066
167 2 0.589189 0.386814 0.574815
168 2 0.601438 0.360512 0.55024
169 1 0.0683229 0.552723 0.625963
170 2 0.0689238 0.534638 0.653893
171 2 0.0656499 0.533029 0.600589
172 1 0.0511799 0.521783 0.244709
173 2 0.0495782 0.50358 0.272118
174 2 0.0600251 0.513586 0.231496
175 1 0.640466 0.240856 0.602977
176 2 0.635771 0.242654 0.632353
177 2 0.634927 0.22314 0.581616
178 1 0.394216 0.859381 0.13807
179 2 0.390155 0.884823 0.154821
180 2 0.388012 0.849847 0.113729
181 1 0.295321 0.179069 0.956403
182 2 0.298551 0.195343 0.929378
183 2 0.302992 0.173821 0.977133
184 1 0.852213 0.266941 0.619326
185 2 0.852597 0.256855 0.587581
186 2 0.853785 0.240908 0.639474
187 1 0.8118 0.514196 0.581342
188 2 0.802374 0.525039 0.583893
189 2 0.812847 0.496792 0.553128
190 1 0.261515 0.147958 0.821016
191 2 0.252399 0.159442 0.828502
192 2 0.266186 0.138674 0.848988
193 1 0.904505 0.570775 0.396067
194 2 0.911944 0.55847 0.414636
195 2 0.905493 0.560112 0.364658
196 1 0.344495 0.655295 0.845624
197 2 0.342652 0.662548 0.877573
198 2 0.353502 0.64104 0.843043
199 1 0.996333 0.835001 0.0853174
200 2 1.00072 0.817174 0.109388
201 2 0.987524 0.821247 0.0775862
202 1 0.101478 0.240366 0.830047
203 2 0.10098 0.207396 0.825433
204 2 0.0956833 0.25571 0.80763
205 1 0.58544 0.222439 0.122937
206 2 0.587451 0.250584 0.106382
207 2 0.576317 0.211625 0.11461
208 1 0.672961 0.0288197 0.207632
209 2 0.669373 0.0551124 0.224269
210 2 0.681741 0.0197439 0.220755
211 1 0.543499 0.758031 0.594431
212 2 0.536757 0.782629 0.593392
213 2 0.550124 0.764172 0.618631
214 1 0.230043 0.630131 0.297882
215 2 0.233572 0.635617 0.267179
216 2 0.224531 0.656205 0.307565
217 1 0.339431 0.662448 0.661091
218 2 0.329955 0.652296 0.664305
219 2 0.345569 0.63914 0.673307
220 1 0.797467 0.670797 0.656905
221 2 0.789004 0.683438 0.669373
222 2 0.798794 0.682022 0.625832
223 1 0.115203 0.369176 0.275451
224 2 0.124056 0.384386 0.272465
225 2 0.116437 0.33985 0.290755
226 1 0.24743 0.88727 0.42226
227 2 0.246889 0.898641 0.390978
228 2 0.25664 0.875684 0.428119
229 1 0.873792 0.763605 0.766378
230 2 0.876346 0.790449 0.784214
231 2 0.868271 0.743146 0.785188
232 1 0.505157 0.583603 0.49957
233 2 0.514223 0.573732 0.489545
234 2 0.505684 0.594591 0.530991
235 1 0.214415 0.69883 0.320097
236 2 0.212154 0.695272 0.352372
237 2 0.207027 0.715167 0.304675
238 1 0.0395667 0.600858 0.268832
239 2 0.0430939 0.569849 0.265469
240 2 0.035008 0.610098 0.240639
241 1 0.954429 0.932312 0.821615
242 2 0.955829 0.924694 0.789501
243 2 0.960331 0.957901 0.829936
244 1 0.385351 0.168811 0.806042
245 2 0.390635 0.140519 0.806731
246 2 0.391323 0.19408 0.797301
247 1 0.41748 0.883385 0.916255
248 2 0.41272 0.893742 0.88883
249 2 0.426088 0.868773 0.907642
250 1 0.831853 0.319168 0.378057
251 2 0.826892 0.311146 0.350248
252 2 0.839421 0.297843 0.382528
253 1 0.0452941 0.396884 0.814856
254 2 0.0393775 0.38875 0.789244
255 2 0.040516 0.418363 0.834759
256 1 0.5649 0.785756 0.672138
257 2 0.566636 0.815816 0.658948
258 2 0.573573 0.769689 0.676286
259 1 0.562379 0.115729 0.633934
260 2 0.566502 0.0953389 0.611429
261 2 0.554621 0.131638 0.620182
262 1 0.967873 0.186276 0.504377
263 2 0.964883 0.192942 0.535479
264 2 0.977578 0.178243 0.504561
265 1 0.78433 0.319612 0.19384
266 2 0.78344 0.351651 0.202546
267 2 0.791346 0.316619 0.17028
268 1 0.679902 0.338292 0.352212
269 2 0.679159 0.330107 0.319994
270 2 0.671357 0.352347 0.362325
271 1 0.792738 0.772376 0.758286
272 2 0.789131 0.78072 0.788235
273 2 0.801151 0.789418 0.752431
274 1 0.879478 0.593657 0.456534
275 2 0.872973 0.599006 0.431788
276 2 0.8888 0.597526 0.445108
277 1 0.799568 0.598144 0.590143
278 2 0.808028 0.580938 0.585698
279 2 0.799916 0.613998 0.619442
280 1 0.595743 0.727299 0.968752
281 2 0.594841 0.699505 0.950598
282 2 0.587025 0.734066 0.983608
283 1 0.367181 0.167999 0.533059
284 2 0.372608 0.158131 0.506858
285 2 0.368444 0.200727 0.537775
286 1 0.0549834 0.472526 0.575809
287 2 0.0454399 0.474719 0.585521
288 2 0.0559381 0.4478 0.553682
289 1 0.286634 0.580687 0.11426
290 2 0.280865 0.553777 0.110118
291 2 0.289937 0.591149 0.0845879
292 1 0.0638014 0.740539 0.351175
293 2 0.0602878 0.740781 0.319968
294 2 0.062017 0.710817 0.365044
295 1 0.132507 0.525794 0.782238
296 2 0.12964 0.529278 0.813982
297 2 0.134693 0.493818 0.776274
298 1 0.223411 0.650831 0.165001
299 2 0.232179 0.657309 0.150345
300 2 0.215959 0.660864 0.145166
ITEM: TIMESTEP
600
ITEM: NUMBER OF ATOMS
300
ITEM: BOX BOUNDS pp ff pp
0.0000000000000000e+00 1.0000000000000000e+02
0.0000000000000000e+00 3.0000000000000000e+01
0.0000000000000000e+00 3.0000000000000000e+01
ITEM: ATOMS id type xs ys zs
1 1 0.36651 0.871469 0.834144
2 2 0.358689 0.873378 0.854829
3 2 0.371526 0.843216 0.839919
4 1 0.598066 0.241241 0.203139
5 2 0.593554 0.265969 0.186603
6 2 0.591552 0.216468 0.208236
7 1 0.0509249 0.896516 0.584706
8 2 0.0580873 0.896939 0.561448
9 2 0.0478887 0.865146 0.589669
10 1 0.684513 0.112276 0.864995
11 2 0.689436 0.0993962 0.890994
12 2 0.690985 0.119116 0.840523
13 1 0.83257 0.242552 0.303854
14 2 0.822808 0.243475 0.311012
15 2 0.833804 0.233936 0.271917
16 1 0.189565 0.367765 0.572207
17 2 0.184871 0.396118 0.580109
18 2 0.198968 0.368851 0.583501
19 1 0.443603 0.313894 0.590688
20 2 0.450325 0.289228 0.591528
21 2 0.435651 0.305456 0.609051
22 1 0.135635 0.301483 0.336135
23 2 0.138044 0.31553 0.365278
24 2 0.142269 0.277636 0.328828
25 1 0.47015 0.774971 0.234466
26 2 0.460709 0.785799 0.232603
27 2 0.470773 0.744502 0.221108
28 1 0.500572 0.408294 0.0628948
29 2 0.507214 0.422233 0.0835531
30 2 0.505213 0.398376 0.0350838
31 1 0.597497 0.309317 0.0701413
32 2 0.600908 0.299634 0.0403408
33 2 0.605034 0.321923 0.0880588
34 1 0.950123 0.914788 0.867365
35 2 0.950319 0.887043 0.885826
36 2 0.958675 0.917448 0.850292
37 1 0.312928 0.265675 0.662106
38 2 0.306235 0.241 0.65997
39 2 0.321962 0.252904 0.668529
40 1 0.438296 0.186075 0.425961
41 2 0.441768 0.16067 0.407746
42 2 0.44128 0.214875 0.412444
43 1 0.0535661 0.808663 0.37064
44 2 0.0609284 0.788593 0.360342
45 2 0.0455219 0.804232 0.351341
46 1 0.665579 0.31232 0.599553
47 2 0.669061 0.281151 0.60177
48 2 0.655993 0.311632 0.590082
49 1 0.541523 0.241536 0.948515
50 2 0.538577 0.215049 0.930818
51 2 0.55106 0.237582 0.957723
52 1 0.792338 0.783871 0.850594
53 2 0.783068 0.786386 0.862846
54 2 0.798541 0.802808 0.868622
55 1 0.588361 0.827222 0.0941453
56 2 0.589594 0.831209 0.0613077
57 2 0.587837 0.857094 0.108832
58 1 0.21931 0.162631 0.336475
59 2 0.222189 0.141398 0.360311
60 2 0.2197 0.193811 0.34819
61 1 0.399316 0.312425 0.829236
62 2 0.396386 0.281328 0.82226
63 2 0.409307 0.313775 0.829678
64 1 0.365814 0.259641 0.505726
65 2 0.361631 0.279428 0.528643
66 2 0.363177 0.269988 0.475283
67 1 0.166724 0.723989 0.143663
68 2 0.157652 0.729365 0.130711
69 2 0.171914 0.752482 0.143696
70 1 0.946147 0.722259 0.243151
71 2 0.939786 0.733455 0.266306
72 2 0.941009 0.711755 0.216552
73 1 0.031891 0.748047 0.646367
74 2 0.029838 0.730367 0.673785
75 2 0.0406192 0.737951 0.633611
76 1 0.738298 0.772347 0.0939934
77 2 0.743106 0.745585 0.105742
78 2 0.72924 0.763329 0.083123
79 1 0.397791 0.085341 0.802007
80 2 0.392103 0.0692764 0.824221
81 2 0.402236 0.0632012 0.781971
82 1 0.618586 0.321923 0.152816
83 2 0.616002 0.291645 0.163778
84 2 0.625594 0.334756 0.172833
85 1 0.310944 0.349505 0.676826
86 2 0.302376 0.345064 0.693427
87 2 0.314161 0.320192 0.665126
88 1 0.629173 0.827334 0.506117
89 2 0.630796 0.858626 0.516251
90 2 0.636544 0.817876 0.485669
91 1 0.134448 0.594846 0.718544
92 2 0.131156 0.574074 0.742191
93 2 0.129526 0.623783 0.720686
94 1 0.542263 0.671112 0.546235
95 2 0.551601 0.662295 0.538205
96 2 0.542332 0.701541 0.559842
97 1 0.522738 0.445282 0.145705
98 2 0.529862 0.465788 0.15696
99 2 0.5181 0.430956 0.171528
100 1 0.141351 0.141948 0.607785
101 2 0.134574 0.117716 0.611466
102 2 0.147769 0.14117 0.633336
103 1 0.30903 0.449204 0.779281
104 2 0.309554 0.458473 0.74731
105 2 0.316169 0.426749 0.785655
106 1 0.252879 0.447823 0.712715
107 2 0.26277 0.444642 0.716471
108 2 0.25092 0.474857 0.694342
109 1 0.226768 0.108577 0.406571
110 2 0.218049 0.0987038 0.419574
111 2 0.234283 0.0937654 0.422826
112 1 0.177319 0.809035 0.730625
113 2 0.172477 0.783807 0.715992
114 2 0.177632 0.803947 0.763552
115 1 0.619901 0.82292 0.781831
116 2 0.625734 0.798696 0.769736
117 2 0.621439 0.850955 0.764542
118 1 0.214125 0.821501 0.437682
119 2 0.222722 0.838524 0.437585
120 2 0.206862 0.840572 0.450387
121 1 0.959819 0.870149 0.672406
122 2 0.950012 0.863917 0.674265
123 2 0.962429 0.874418 0.640512
124 1 0.13838 0.342601 0.426956
125 2 0.131434 0.320767 0.436871
126 2 0.13734 0.371005 0.444052
127 1 0.798459 0.803313 0.0380744
128 2 0.802914 0.816915 0.064638
129 2 0.788578 0.802271 0.0430778
130 1 0.511316 0.400394 0.218629
131 2 0.501686 0.407956 0.223487
132 2 0.512273 0.367439 0.214768
133 1 0.14315 0.437624 0.832279
134 2 0.151397 0.428146 0.815982
135 2 0.139822 0.412361 0.850982
136 1 0.314352 0.444199 0.678378
137 2 0.31852 0.443142 0.648098
138 2 0.312734 0.413142 0.689218
139 1 0.385746 0.929956 0.807887
140 2 0.376985 0.917742 0.818334
141 2 0.386462 0.926304 0.774841
142 1 0.246403 0.556618 0.316119
143 2 0.251985 0.558203 0.288508
144 2 0.236863 0.563043 0.30847
145 1 0.303361 0.18956 0.614656
146 2 0.310051 0.186661 0.59005
147 2 0.295032 0.173015 0.606496
148 1 0.478148 0.152573 0.312041
149 2 0.487354 0.163989 0.305782
150 2 0.47799 0.119462 0.308233
151 1 0.907065 0.13686 0.243244
152 2 0.897706 0.130257 0.252952
153 2 0.913271 0.133276 0.269134
154 1 0.48569 0.863411 0.269645
155 2 0.491716 0.867679 0.243389
156 2 0.479483 0.837942 0.263781
157 1 0.672506 0.75634 0.270173
158 2 0.666758 0.773323 0.248828
159 2 0.681327 0.771713 0.273362
160 1 0.72526 0.352878 0.557329
161 2 0.71914 0.327818 0.549144
162 2 0.721082 0.371087 0.581528
163 1 0.630811 0.55341 0.158657
164 2 0.630037 0.561387 0.126395
165 2 0.6356 0.577762 0.174881
166 1 0.564777 0.336304 0.587108
167 2 0.564122 0.312601 0.610442
168 2 0.5635 0.366205 0.601211
169 1 0.0683253 0.565707 0.626807
170 2 0.0724833 0.554362 0.654919
171 2 0.0647305 0.540069 0.609194
172 1 0.0565838 0.506918 0.242728
173 2 0.0509526 0.484889 0.22619
174 2 0.0661993 0.502394 0.23477
175 1 0.631195 0.244244 0.588236
176 2 0.627081 0.221139 0.568508
177 2 0.624678 0.252883 0.611994
178 1 0.401148 0.855407 0.151217
179 2 0.394673 0.836037 0.167652
180 2 0.396223 0.873742 0.128734
181 1 0.295874 0.160451 0.936858
182 2 0.286301 0.157191 0.927799
183 2 0.301485 0.166058 0.909841
184 1 0.847452 0.253339 0.617947
185 2 0.846582 0.259934 0.585401
186 2 0.851858 0.279066 0.633229
187 1 0.817537 0.505717 0.575233
188 2 0.819215 0.538399 0.571818
189 2 0.809719 0.50096 0.595465
190 1 0.267623 0.145829 0.833023
191 2 0.261117 0.169323 0.823598
192 2 0.26787 0.121634 0.810109
193 1 0.90142 0.568741 0.423858
194 2 0.909799 0.554298 0.434917
195 2 0.895136 0.545333 0.412699
196 1 0.340496 0.638611 0.849657
197 2 0.341089 0.619322 0.822543
198 2 0.334155 0.624936 0.871504
199 1 0.0252383 0.776573 0.0208146
200 2 0.022998 0.792833 0.0489384
201 2 0.0351735 0.774657 0.0175475
202 1 0.100558 0.234635 0.826747
203 2 0.0946265 0.231687 0.800072
204 2 0.10275 0.266784 0.831661
205 1 0.578928 0.27739 0.128651
206 2 0.584555 0.290016 0.104158
207 2 0.573904 0.302008 0.143638
208 1 0.680456 0.030354 0.226527
209 2 0.67203 0.0395618 0.241933
210 2 0.683432 0.000768822 0.238252
211 1 0.547919 0.770145 0.591217
212 2 0.550913 0.772707 0.622918
213 2 0.54767 0.800444 0.577347
214 1 0.223595 0.620822 0.280579
215 2 0.227899 0.633127 0.253122
216 2 0.223376 0.644317 0.304214
217 1 0.347118 0.678624 0.678237
218 2 0.342966 0.659809 0.702019
219 2 0.347479 0.66139 0.64973
220 1 0.78929 0.676793 0.655718
221 2 0.790086 0.706155 0.671274
222 2 0.794206 0.653513 0.673057
223 1 0.118609 0.371166 0.283157
224 2 0.122347 0.36255 0.31285
225 2 0.117987 0.344166 0.26372
226 1 0.246553 0.878237 0.435605
227 2 0.249949 0.887327 0.4056
228 2 0.253858 0.881525 0.45813
229 1 0.863971 0.783877 0.756327
230 2 0.870549 0.797359 0.735147
231 2 0.855768 0.802898 0.757614
232 1 0.507683 0.593694 0.529517
233 2 0.517489 0.596603 0.523667
234 2 0.503063 0.621949 0.520824
235 1 0.220774 0.698515 0.335006
236 2 0.21206 0.698534 0.351356
237 2 0.228303 0.698491 0.356943
238 1 0.0486533 0.58365 0.277205
239 2 0.0512105 0.551779 0.272444
240 2 0.0386955 0.586542 0.276209
241 1 0.969588 0.907307 0.75286
242 2 0.965264 0.894414 0.725709
243 2 0.974422 0.883249 0.76937
244 1 0.386221 0.170632 0.811654
245 2 0.391134 0.142756 0.80354
246 2 0.386522 0.174889 0.844699
247 1 0.412756 0.857639 0.926117
248 2 0.420304 0.842862 0.910006
249 2 0.413332 0.890641 0.921836
250 1 0.835389 0.332486 0.380957
251 2 0.836173 0.303362 0.364954
252 2 0.83373 0.356839 0.358877
253 1 0.0782518 0.410518 0.749035
254 2 0.082619 0.431938 0.77002
255 2 0.0741758 0.427324 0.723656
256 1 0.571597 0.755816 0.683062
257 2 0.576336 0.766499 0.710402
258 2 0.578296 0.744622 0.660989
259 1 0.553215 0.100952 0.661328
260 2 0.556326 0.1311 0.651599
261 2 0.557358 0.0776478 0.641904
262 1 0.970805 0.188399 0.520461
263 2 0.96808 0.217429 0.534094
264 2 0.980453 0.189772 0.511796
265 1 0.773143 0.261934 0.275214
266 2 0.76578 0.281283 0.263628
267 2 0.769231 0.236664 0.292605
268 1 0.675251 0.321777 0.372119
269 2 0.676552 0.293684 0.354708
270 2 0.67294 0.346661 0.351321
271 1 0.791202 0.745927 0.759788
272 2 0.790701 0.756581 0.791328
273 2 0.799162 0.759505 0.744864
274 1 0.88136 0.624041 0.431767
275 2 0.876191 0.599549 0.446412
276 2 0.890635 0.613471 0.425172
277 1 0.814799 0.596593 0.592672
278 2 0.80532 0.607196 0.593245
279 2 0.820924 0.62216 0.599046
280 1 0.562178 0.718166 0.0463208
281 2 0.568419 0.721094 0.0721999
282 2 0.554601 0.698041 0.0545884
283 1 0.368255 0.167071 0.52914
284 2 0.375251 0.169899 0.552788
285 2 0.366559 0.196947 0.515481
286 1 0.0573248 0.490563 0.582574
287 2 0.0585683 0.460037 0.595305
288 2 0.0514756 0.488796 0.555595
289 1 0.282998 0.593863 0.121015
290 2 0.291881 0.592071 0.105805
291 2 0.283985 0.610293 0.14983
292 1 0.0644712 0.729243 0.342303
293 2 0.0743187 0.729339 0.336505
294 2 0.0614254 0.698044 0.348186
295 1 0.132637 0.514308 0.789174
296 2 0.138107 0.48763 0.797357
297 2 0.122926 0.507076 0.792471
298 1 0.223984 0.6562 0.201488
299 2 0.217015 0.660762 0.178023
300 2 0.231756 0.676314 0.195535
ITEM: TIMESTEP
700
ITEM: NUMBER OF ATOMS
300
ITEM: BOX BOUNDS pp ff pp
0.0000000000000000e+00 1.0000000000000000e+02
0.0000000000000000e+00 3.0000000000000000e+01
0.0000000000000000e+00 3.0000000000000000e+01
ITEM: ATOMS id type xs ys zs
1 1 0.36817 0.875926 0.842575
2 2 0.362263 0.875083 0.869458
3 2 0.374975 0.851589 0.84465
4 1 0.594971 0.265519 0.17712
5 2 0.58777 0.288618 0.175936
6 2 0.590832 0.23528 0.179653
7 1 0.0505685 0.901433 0.597578
8 2 0.0519713 0.882461 0.570573
9 2 0.0411443 0.898079 0.608209
10 1 0.681189 0.128405 0.826713
11 2 0.672495 0.137374 0.840531
12 2 0.685269 0.103692 0.844473
13 1 0.833264 0.259208 0.305431
14 2 0.824483 0.253588 0.290507
15 2 0.832687 0.287154 0.323499
16 1 0.186103 0.373827 0.576459
17 2 0.18483 0.383023 0.608217
18 2 0.187318 0.340777 0.574908
19 1 0.444635 0.31297 0.598277
20 2 0.438705 0.318846 0.572087
21 2 0.439972 0.322309 0.626245
22 1 0.131737 0.325769 0.331268
23 2 0.133075 0.3226 0.364149
24 2 0.133209 0.296293 0.316497
25 1 0.466868 0.781457 0.239485
26 2 0.462888 0.750925 0.237783
27 2 0.475327 0.782323 0.22173
28 1 0.510531 0.369841 0.0644333
29 2 0.517546 0.384683 0.0829834
30 2 0.505549 0.392872 0.0469738
31 1 0.598188 0.324425 0.068737
32 2 0.600763 0.297907 0.0504547
33 2 0.6056 0.33183 0.0898532
34 1 0.974112 0.978112 0.87261
35 2 0.977402 0.947445 0.86551
36 2 0.975046 0.983729 0.905319
37 1 0.317322 0.265746 0.681221
38 2 0.314531 0.234944 0.672515
39 2 0.321997 0.264738 0.710669
40 1 0.439813 0.190426 0.399601
41 2 0.438649 0.17992 0.430997
42 2 0.448778 0.180902 0.388312
43 1 0.0536207 0.78341 0.377803
44 2 0.0538692 0.758794 0.355341
45 2 0.044113 0.791241 0.384539
46 1 0.664125 0.290422 0.62258
47 2 0.662509 0.272375 0.650083
48 2 0.655545 0.293942 0.605822
49 1 0.54077 0.244265 0.945294
50 2 0.538605 0.25082 0.913419
51 2 0.535471 0.264466 0.965067
52 1 0.79476 0.768822 0.850961
53 2 0.788903 0.752106 0.872187
54 2 0.800137 0.791362 0.867748
55 1 0.587439 0.830224 0.0994548
56 2 0.587375 0.845007 0.12933
57 2 0.594826 0.807785 0.0983371
58 1 0.224143 0.177558 0.356566
59 2 0.227383 0.15614 0.379712
60 2 0.214194 0.180279 0.358556
61 1 0.392615 0.268058 0.80876
62 2 0.400301 0.253543 0.793135
63 2 0.385927 0.244856 0.817461
64 1 0.365362 0.252157 0.499469
65 2 0.363663 0.237215 0.470216
66 2 0.365888 0.285136 0.494945
67 1 0.170513 0.711494 0.14895
68 2 0.17112 0.72981 0.121173
69 2 0.179717 0.703512 0.159253
70 1 0.936257 0.71206 0.263008
71 2 0.928739 0.726638 0.246556
72 2 0.944806 0.727957 0.256199
73 1 0.0334613 0.73633 0.647017
74 2 0.041595 0.722363 0.660469
75 2 0.0282214 0.71315 0.630623
76 1 0.74736 0.778591 0.0742817
77 2 0.74462 0.787904 0.104957
78 2 0.742126 0.795896 0.0517597
79 1 0.396711 0.113761 0.789232
80 2 0.389769 0.0897754 0.789866
81 2 0.405592 0.100861 0.797496
82 1 0.614473 0.340858 0.170006
83 2 0.614584 0.307568 0.168358
84 2 0.606983 0.350727 0.189765
85 1 0.307748 0.352349 0.67321
86 2 0.313164 0.324414 0.671013
87 2 0.300389 0.34801 0.695357
88 1 0.623883 0.818321 0.514496
89 2 0.620778 0.849536 0.509058
90 2 0.626174 0.803923 0.485418
91 1 0.139233 0.645737 0.699561
92 2 0.130717 0.662873 0.696161
93 2 0.141847 0.632724 0.670136
94 1 0.531981 0.702227 0.575459
95 2 0.524974 0.715549 0.55576
96 2 0.540976 0.713665 0.566442
97 1 0.523425 0.430748 0.144249
98 2 0.525696 0.461157 0.15561
99 2 0.51681 0.416407 0.164725
100 1 0.144626 0.142082 0.61588
101 2 0.1463 0.174885 0.617879
102 2 0.136739 0.134113 0.634758
103 1 0.309293 0.439194 0.752571
104 2 0.312609 0.407799 0.754391
105 2 0.316883 0.460212 0.75798
106 1 0.249284 0.452299 0.708164
107 2 0.256287 0.474268 0.699027
108 2 0.253239 0.430273 0.729427
109 1 0.229309 0.117528 0.43257
110 2 0.23076 0.120544 0.465412
111 2 0.231736 0.0866596 0.422936
112 1 0.173899 0.768065 0.714419
113 2 0.181242 0.76835 0.737047
114 2 0.165105 0.772308 0.729707
115 1 0.616982 0.819347 0.763297
116 2 0.626804 0.818099 0.757157
117 2 0.615037 0.803977 0.792156
118 1 0.211752 0.78204 0.397838
119 2 0.216686 0.810624 0.392989
120 2 0.207816 0.781831 0.42848
121 1 0.951419 0.858226 0.652005
122 2 0.944408 0.842177 0.669538
123 2 0.949996 0.852675 0.619481
124 1 0.139537 0.331415 0.43113
125 2 0.140374 0.36437 0.42697
126 2 0.137144 0.324852 0.462822
127 1 0.793949 0.797901 0.995653
128 2 0.801125 0.811472 0.0144884
129 2 0.785747 0.793164 0.0141246
130 1 0.50848 0.409283 0.216427
131 2 0.511562 0.39563 0.245049
132 2 0.498528 0.406861 0.214239
133 1 0.147536 0.441655 0.810501
134 2 0.157395 0.438491 0.805913
135 2 0.144648 0.422123 0.835738
136 1 0.309232 0.472503 0.655026
137 2 0.316851 0.47488 0.676485
138 2 0.301596 0.456704 0.669642
139 1 0.386975 0.939859 0.818347
140 2 0.378479 0.92257 0.821538
141 2 0.387782 0.951101 0.787082
142 1 0.245962 0.582233 0.304349
143 2 0.240531 0.558228 0.31874
144 2 0.23987 0.605807 0.292391
145 1 0.306458 0.204682 0.600692
146 2 0.297547 0.214772 0.589424
147 2 0.312703 0.200551 0.574987
148 1 0.466658 0.145789 0.33139
149 2 0.470711 0.150843 0.301341
150 2 0.468361 0.114374 0.340983
151 1 0.902208 0.124329 0.260719
152 2 0.897983 0.153246 0.25197
153 2 0.897302 0.0991669 0.246208
154 1 0.488442 0.849023 0.264203
155 2 0.485713 0.878638 0.251901
156 2 0.480307 0.832176 0.273799
157 1 0.671719 0.770517 0.259296
158 2 0.681556 0.775705 0.256279
159 2 0.670105 0.739489 0.270224
160 1 0.725978 0.353252 0.550068
161 2 0.719123 0.35634 0.525997
162 2 0.722208 0.364489 0.578825
163 1 0.627414 0.533336 0.152438
164 2 0.636557 0.521739 0.159355
165 2 0.625046 0.557435 0.174073
166 1 0.538111 0.303158 0.627443
167 2 0.533933 0.324516 0.605971
168 2 0.53125 0.281153 0.637634
169 1 0.0687793 0.577826 0.633919
170 2 0.0781555 0.567058 0.638204
171 2 0.0630354 0.552553 0.623633
172 1 0.0627736 0.485682 0.255923
173 2 0.0639187 0.47135 0.226071
174 2 0.063755 0.462656 0.279802
175 1 0.634165 0.266633 0.588025
176 2 0.625176 0.278611 0.59639
177 2 0.633312 0.234519 0.579556
178 1 0.40842 0.853295 0.152929
179 2 0.401991 0.846354 0.1775
180 2 0.410322 0.825565 0.135552
181 1 0.292665 0.136237 0.938358
182 2 0.285304 0.149412 0.920043
183 2 0.297119 0.160306 0.956005
184 1 0.844082 0.249086 0.634478
185 2 0.834129 0.24914 0.637688
186 2 0.847769 0.27799 0.64564
187 1 0.817464 0.490516 0.563282
188 2 0.821835 0.520357 0.566175
189 2 0.823929 0.466716 0.572247
190 1 0.271605 0.144546 0.834497
191 2 0.271244 0.158647 0.804317
192 2 0.273373 0.111897 0.831279
193 1 0.905679 0.582742 0.446406
194 2 0.897415 0.590218 0.429193
195 2 0.911282 0.610127 0.449927
196 1 0.337765 0.607578 0.84724
197 2 0.338237 0.610332 0.880422
198 2 0.333191 0.634378 0.834577
199 1 0.0512576 0.737862 0.952877
200 2 0.0514196 0.75178 0.922593
201 2 0.0434082 0.717342 0.955209
202 1 0.0995052 0.236354 0.821459
203 2 0.102633 0.206946 0.809728
204 2 0.0914908 0.23174 0.840854
205 1 0.578317 0.330632 0.136116
206 2 0.583832 0.333693 0.10848
207 2 0.570573 0.351672 0.134675
208 1 0.686859 0.032647 0.239099
209 2 0.691916 0.0613955 0.238391
210 2 0.68816 0.0165123 0.210255
211 1 0.556179 0.732936 0.577855
212 2 0.559666 0.72393 0.607771
213 2 0.563265 0.728091 0.55484
214 1 0.218245 0.649081 0.298018
215 2 0.218877 0.660493 0.26677
216 2 0.212137 0.668706 0.315665
217 1 0.351585 0.671561 0.690176
218 2 0.360984 0.681067 0.696452
219 2 0.350707 0.638776 0.695437
220 1 0.790688 0.688187 0.692383
221 2 0.790646 0.700164 0.72349
222 2 0.781621 0.692041 0.67886
223 1 0.116759 0.376274 0.264996
224 2 0.120663 0.355926 0.287969
225 2 0.118554 0.407936 0.27353
226 1 0.253355 0.867873 0.432337
227 2 0.258022 0.842094 0.44664
228 2 0.255586 0.868704 0.399854
229 1 0.859007 0.808788 0.743284
230 2 0.859299 0.83922 0.756851
231 2 0.854616 0.81042 0.713379
232 1 0.517379 0.626866 0.550093
233 2 0.527185 0.626741 0.556632
234 2 0.512467 0.640809 0.575562
235 1 0.219393 0.701312 0.382389
236 2 0.215987 0.73181 0.389607
237 2 0.223779 0.688232 0.409338
238 1 0.0560418 0.579468 0.255118
239 2 0.0602858 0.550079 0.261995
240 2 0.0464543 0.578899 0.264576
241 1 0.975664 0.846827 0.693248
242 2 0.967949 0.862668 0.679145
243 2 0.984014 0.853383 0.676119
244 1 0.382149 0.192643 0.82053
245 2 0.389386 0.17103 0.812644
246 2 0.373375 0.1767 0.821721
247 1 0.401823 0.839658 0.912267
248 2 0.400244 0.869482 0.898343
249 2 0.411469 0.836802 0.920588
250 1 0.836241 0.335605 0.368377
251 2 0.843409 0.354894 0.381342
252 2 0.830785 0.32239 0.392989
253 1 0.112668 0.427248 0.684997
254 2 0.106934 0.452413 0.695605
255 2 0.119688 0.420688 0.70781
256 1 0.570062 0.729268 0.685283
257 2 0.572102 0.69838 0.695809
258 2 0.578236 0.748246 0.688187
259 1 0.546871 0.0789122 0.666238
260 2 0.548162 0.0522126 0.685724
261 2 0.538757 0.074565 0.647249
262 1 0.971804 0.191115 0.526395
263 2 0.97286 0.219426 0.543634
264 2 0.980495 0.174635 0.52606
265 1 0.763749 0.202974 0.345519
266 2 0.765338 0.173925 0.330054
267 2 0.759614 0.197333 0.37534
268 1 0.672137 0.332488 0.389359
269 2 0.671419 0.316555 0.360178
270 2 0.663027 0.335917 0.402668
271 1 0.79279 0.735672 0.771274
272 2 0.790626 0.746729 0.801882
273 2 0.802663 0.731117 0.768576
274 1 0.881974 0.62982 0.411561
275 2 0.882805 0.655921 0.391014
276 2 0.872455 0.619636 0.412368
277 1 0.826176 0.578458 0.579133
278 2 0.826084 0.608371 0.564428
279 2 0.820528 0.579398 0.606624
280 1 0.532184 0.716461 0.124263
281 2 0.539998 0.729699 0.108216
282 2 0.534472 0.685586 0.134248
283 1 0.371145 0.175657 0.540336
284 2 0.380675 0.176812 0.55037
285 2 0.368292 0.205907 0.530061
286 1 0.0579954 0.511249 0.588068
287 2 0.0587734 0.480631 0.600988
288 2 0.0523268 0.510166 0.560629
289 1 0.284718 0.602679 0.122056
290 2 0.279735 0.598718 0.0934273
291 2 0.278216 0.607821 0.146854
292 1 0.0629871 0.711782 0.314682
293 2 0.0613967 0.683559 0.297757
294 2 0.0725593 0.720862 0.311429
295 1 0.127252 0.505128 0.824892
296 2 0.134469 0.482498 0.820387
297 2 0.131369 0.534694 0.831865
298 1 0.221176 0.665816 0.202613
299 2 0.227427 0.640019 0.205994
300 2 0.226228 0.692307 0.191402
ITEM: TIMESTEP
800
ITEM: NUMBER OF ATOMS
300
ITEM: BOX BOUNDS pp ff pp
0.0000000000000000e+00 1.0000000000000000e+02
0.0000000000000000e+00 3.0000000000000000e+01
0.0000000000000000e+00 3.0000000000000000e+01
ITEM: ATOMS id type xs ys zs
1 1 0.36729 0.892854 0.852468
2 2 0.357335 0.894885 0.850047
3 2 0.369815 0.863256 0.865285
4 1 0.597696 0.314084 0.198235
5 2 0.592211 0.328238 0.174223
6 2 0.596042 0.281211 0.198479
7 1 0.0510783 0.914764 0.601803
8 2 0.0441741 0.893877 0.589752
9 2 0.0601946 0.902326 0.59606
10 1 0.675129 0.141627 0.792202
11 2 0.680432 0.117432 0.777598
12 2 0.67168 0.162565 0.768954
13 1 0.833314 0.276962 0.311836
14 2 0.839618 0.255517 0.297356
15 2 0.83834 0.296095 0.333386
16 1 0.181034 0.380625 0.595455
17 2 0.176429 0.408477 0.585468
18 2 0.187429 0.370618 0.571863
19 1 0.44577 0.33971 0.606819
20 2 0.451003 0.314771 0.593221
21 2 0.439329 0.327374 0.629136
22 1 0.133767 0.343775 0.331442
23 2 0.137346 0.341835 0.362506
24 2 0.135079 0.314553 0.316014
25 1 0.466205 0.783069 0.2413
26 2 0.459207 0.805127 0.232334
27 2 0.474634 0.799189 0.249168
28 1 0.521301 0.344396 0.0680316
29 2 0.522192 0.368789 0.0905541
30 2 0.512579 0.328698 0.0724255
31 1 0.602172 0.36179 0.0915985
32 2 0.606633 0.371425 0.0633658
33 2 0.608601 0.364627 0.116973
34 1 0.998193 0.975213 0.880539
35 2 0.990854 0.997762 0.882563
36 2 0.00231713 0.976428 0.850196
37 1 0.313707 0.279114 0.708529
38 2 0.318165 0.261048 0.684781
39 2 0.319403 0.279215 0.735926
40 1 0.437955 0.19759 0.391887
41 2 0.433511 0.167857 0.389132
42 2 0.44222 0.205654 0.362835
43 1 0.055984 0.763037 0.379427
44 2 0.053415 0.743493 0.353819
45 2 0.0621702 0.746424 0.399673
46 1 0.666016 0.267581 0.648926
47 2 0.661653 0.291546 0.666961
48 2 0.660796 0.262636 0.620928
49 1 0.535051 0.263733 0.989889
50 2 0.536964 0.29329 0.00391742
51 2 0.52991 0.244753 0.0112706
52 1 0.796083 0.758461 0.880202
53 2 0.79413 0.773483 0.909238
54 2 0.78749 0.749935 0.865438
55 1 0.586924 0.841407 0.0765181
56 2 0.583512 0.837499 0.107606
57 2 0.579337 0.838543 0.054993
58 1 0.221295 0.188696 0.374276
59 2 0.223748 0.171157 0.401416
60 2 0.228636 0.210173 0.367135
61 1 0.394014 0.247998 0.795439
62 2 0.386619 0.225677 0.793134
63 2 0.390848 0.277437 0.783904
64 1 0.3649 0.25 0.503318
65 2 0.365033 0.237522 0.472412
66 2 0.365202 0.283287 0.501876
67 1 0.174164 0.699997 0.15112
68 2 0.180066 0.72684 0.149227
69 2 0.165855 0.705244 0.133331
70 1 0.92668 0.706631 0.282482
71 2 0.92537 0.678754 0.300227
72 2 0.920878 0.705675 0.25535
73 1 0.0273757 0.735626 0.620294
74 2 0.0209566 0.717304 0.638115
75 2 0.0300561 0.762502 0.63787
76 1 0.762816 0.791869 0.0391969
77 2 0.762123 0.82281 0.0513799
78 2 0.753658 0.778845 0.0360884
79 1 0.395315 0.131185 0.7849
80 2 0.404576 0.134332 0.797075
81 2 0.395709 0.129284 0.751647
82 1 0.619173 0.351359 0.155413
83 2 0.612753 0.337537 0.176912
84 2 0.625934 0.369316 0.172164
85 1 0.300773 0.354618 0.66034
86 2 0.302776 0.332967 0.684789
87 2 0.30367 0.38515 0.669591
88 1 0.620869 0.814164 0.517652
89 2 0.615904 0.815195 0.546568
90 2 0.617349 0.789136 0.499022
91 1 0.148921 0.683925 0.683404
92 2 0.146101 0.715461 0.688717
93 2 0.140903 0.664033 0.684494
94 1 0.528334 0.739054 0.601042
95 2 0.537257 0.752553 0.59439
96 2 0.522862 0.760563 0.618813
97 1 0.520209 0.401942 0.135758
98 2 0.524861 0.426981 0.120148
99 2 0.515677 0.413558 0.163107
100 1 0.145978 0.1512 0.609887
101 2 0.136537 0.150522 0.598921
102 2 0.148554 0.120928 0.620888
103 1 0.313051 0.423619 0.701904
104 2 0.322776 0.416707 0.698366
105 2 0.310778 0.450776 0.68412
106 1 0.244436 0.435433 0.711093
107 2 0.245797 0.415347 0.737305
108 2 0.253031 0.438464 0.694328
109 1 0.232391 0.128304 0.442392
110 2 0.227116 0.11485 0.467312
111 2 0.240607 0.11008 0.437013
112 1 0.171073 0.731409 0.690851
113 2 0.162797 0.71717 0.678718
114 2 0.178981 0.721583 0.67297
115 1 0.607374 0.80573 0.769259
116 2 0.60721 0.821866 0.740096
117 2 0.610039 0.826845 0.793474
118 1 0.211668 0.773005 0.386242
119 2 0.216586 0.799819 0.375136
120 2 0.202101 0.780981 0.391769
121 1 0.951865 0.837033 0.652074
122 2 0.949941 0.842212 0.684371
123 2 0.943408 0.828736 0.63634
124 1 0.134516 0.337397 0.426176
125 2 0.128436 0.31367 0.437895
126 2 0.141521 0.344304 0.44894
127 1 0.782153 0.794259 0.976063
128 2 0.789473 0.80424 0.996462
129 2 0.773298 0.799578 0.990612
130 1 0.505619 0.439046 0.200581
131 2 0.497339 0.423468 0.190261
132 2 0.503241 0.461271 0.224125
133 1 0.148994 0.463104 0.787075
134 2 0.155676 0.484891 0.77523
135 2 0.153416 0.443135 0.809326
136 1 0.303729 0.488825 0.640819
137 2 0.309991 0.472737 0.620409
138 2 0.301419 0.518488 0.627708
139 1 0.390794 0.942122 0.84471
140 2 0.381577 0.929909 0.84046
141 2 0.391181 0.973289 0.832961
142 1 0.24518 0.586871 0.280561
143 2 0.243399 0.604396 0.252834
144 2 0.240582 0.601374 0.306365
145 1 0.314902 0.230152 0.605101
146 2 0.311649 0.258729 0.591799
147 2 0.308478 0.205671 0.597801
148 1 0.453004 0.100879 0.338526
149 2 0.459053 0.0930355 0.313169
150 2 0.45461 0.0799063 0.363876
151 1 0.899392 0.104125 0.267229
152 2 0.902272 0.0878792 0.294706
153 2 0.902453 0.135813 0.268921
154 1 0.487103 0.837404 0.260066
155 2 0.488534 0.87021 0.263549
156 2 0.495595 0.821254 0.267061
157 1 0.676931 0.782611 0.249654
158 2 0.671916 0.801928 0.271067
159 2 0.679483 0.754113 0.264707
160 1 0.726122 0.355042 0.53979
161 2 0.721051 0.378075 0.522618
162 2 0.720127 0.329178 0.546335
163 1 0.620814 0.503583 0.146132
164 2 0.629607 0.487769 0.147513
165 2 0.619117 0.513789 0.114908
166 1 0.514158 0.267782 0.635347
167 2 0.506726 0.267039 0.657639
168 2 0.522025 0.251042 0.647315
169 1 0.0727078 0.591791 0.637321
170 2 0.0765595 0.57773 0.664681
171 2 0.0665148 0.570278 0.622416
172 1 0.0722459 0.466198 0.25677
173 2 0.0748048 0.459443 0.225262
174 2 0.0754618 0.441705 0.276677
175 1 0.632606 0.286625 0.595427
176 2 0.626069 0.263643 0.585023
177 2 0.632956 0.311608 0.573392
178 1 0.4142 0.845962 0.138983
179 2 0.410487 0.852462 0.108723
180 2 0.409179 0.863527 0.161841
181 1 0.296072 0.128077 0.946593
182 2 0.294362 0.108603 0.973039
183 2 0.30307 0.150632 0.954227
184 1 0.838603 0.261309 0.644316
185 2 0.84656 0.262954 0.664439
186 2 0.830265 0.259867 0.662663
187 1 0.818727 0.475759 0.54553
188 2 0.822748 0.474729 0.576032
189 2 0.814038 0.446986 0.539285
190 1 0.261775 0.135642 0.802639
191 2 0.262531 0.168595 0.798297
192 2 0.268562 0.125619 0.824975
193 1 0.905845 0.613811 0.468379
194 2 0.904614 0.594841 0.441279
195 2 0.914847 0.628297 0.46736
196 1 0.338434 0.598947 0.851946
197 2 0.334692 0.62728 0.864308
198 2 0.346258 0.605891 0.832383
199 1 0.0762829 0.689347 0.900322
200 2 0.0813617 0.661593 0.907686
201 2 0.0734419 0.688438 0.868375
202 1 0.0992329 0.240355 0.818224
203 2 0.107882 0.256997 0.819967
204 2 0.0918206 0.259731 0.829414
205 1 0.58 0.341534 0.136046
206 2 0.587028 0.349051 0.113557
207 2 0.572503 0.363482 0.13382
208 1 0.69203 0.0355838 0.244533
209 2 0.694147 0.00371743 0.237761
210 2 0.699217 0.05515 0.232111
211 1 0.56589 0.713855 0.580206
212 2 0.568513 0.704756 0.611058
213 2 0.57411 0.720074 0.562271
214 1 0.221061 0.690425 0.305996
215 2 0.219963 0.676768 0.336182
216 2 0.223928 0.722191 0.309258
217 1 0.351937 0.629201 0.711356
218 2 0.343288 0.621151 0.696686
219 2 0.353009 0.662342 0.711389
220 1 0.789962 0.687736 0.694335
221 2 0.792903 0.710548 0.716576
222 2 0.7896 0.657792 0.708929
223 1 0.115083 0.374639 0.270508
224 2 0.121443 0.369603 0.295731
225 2 0.119421 0.393975 0.247528
226 1 0.255704 0.853401 0.423983
227 2 0.255458 0.82772 0.445218
228 2 0.263366 0.849581 0.402908
229 1 0.853357 0.836426 0.730339
230 2 0.846785 0.84107 0.705649
231 2 0.848534 0.836073 0.759537
232 1 0.516232 0.639131 0.570544
233 2 0.523371 0.66245 0.571559
234 2 0.512244 0.635493 0.600895
235 1 0.215146 0.683727 0.41769
236 2 0.212565 0.715722 0.421351
237 2 0.215524 0.669068 0.447601
238 1 0.0672169 0.563636 0.24724
239 2 0.0665138 0.536307 0.26618
240 2 0.0766503 0.567245 0.236785
241 1 0.974712 0.788032 0.621135
242 2 0.966429 0.802318 0.633164
243 2 0.980267 0.810982 0.605593
244 1 0.376671 0.184555 0.82191
245 2 0.380782 0.162693 0.800806
246 2 0.370503 0.168544 0.842692
247 1 0.397577 0.837502 0.905082
248 2 0.401131 0.861838 0.885628
249 2 0.404544 0.828774 0.927345
250 1 0.834281 0.353002 0.372367
251 2 0.836946 0.380607 0.388803
252 2 0.824855 0.345052 0.38017
253 1 0.14846 0.45317 0.635128
254 2 0.149983 0.420707 0.640739
255 2 0.146192 0.468355 0.663822
256 1 0.572729 0.706134 0.680971
257 2 0.578102 0.692913 0.70578
258 2 0.562989 0.701834 0.687191
259 1 0.540852 0.0424179 0.647269
260 2 0.533301 0.0266582 0.662408
261 2 0.545648 0.0211239 0.627215
262 1 0.973144 0.193443 0.530253
263 2 0.973476 0.218121 0.552633
264 2 0.973644 0.1641 0.545979
265 1 0.752315 0.156124 0.420653
266 2 0.750743 0.147035 0.452292
267 2 0.762145 0.158786 0.41514
268 1 0.665721 0.319487 0.388635
269 2 0.671355 0.292557 0.382869
270 2 0.668649 0.344324 0.368661
271 1 0.801622 0.722666 0.773739
272 2 0.803938 0.75466 0.779014
273 2 0.803535 0.70501 0.801285
274 1 0.887074 0.624594 0.379061
275 2 0.880661 0.624448 0.353485
276 2 0.882058 0.629445 0.407487
277 1 0.832085 0.544203 0.588703
278 2 0.827924 0.574392 0.591422
279 2 0.829543 0.530678 0.559439
280 1 0.50533 0.728823 0.199905
281 2 0.50134 0.734301 0.169835
282 2 0.504694 0.696377 0.207247
283 1 0.375179 0.175875 0.555848
284 2 0.368547 0.159072 0.574288
285 2 0.370806 0.202934 0.542946
286 1 0.0566234 0.52559 0.583998
287 2 0.0492084 0.504918 0.592534
288 2 0.0544376 0.54022 0.554946
289 1 0.282396 0.611037 0.138152
290 2 0.284091 0.608961 0.105367
291 2 0.282083 0.643091 0.147239
292 1 0.0570753 0.689801 0.313847
293 2 0.0638356 0.671887 0.297043
294 2 0.0483075 0.673772 0.313783
295 1 0.125926 0.473991 0.839717
296 2 0.132558 0.46734 0.815674
297 2 0.117152 0.48216 0.825968
298 1 0.218576 0.667075 0.216511
299 2 0.217827 0.675737 0.248602
300 2 0.210052 0.674516 0.200752
ITEM: TIMESTEP
900
ITEM: NUMBER OF ATOMS
300
ITEM: BOX BOUNDS pp ff pp
0.0000000000000000e+00 1.0000000000000000e+02
0.0000000000000000e+00 3.0000000000000000e+01
0.0000000000000000e+00 3.0000000000000000e+01
ITEM: ATOMS id type xs ys zs
1 1 0.3642 0.922434 0.850117
2 2 0.361385 0.94077 0.823909
3 2 0.360019 0.892222 0.848102
4 1 0.599917 0.367304 0.219355
5 2 0.593191 0.362945 0.195077
6 2 0.596703 0.352398 0.247179
7 1 0.0465301 0.922757 0.582243
8 2 0.0530401 0.9027 0.597668
9 2 0.0394456 0.932233 0.603776
10 1 0.665779 0.148924 0.761414
11 2 0.672446 0.169701 0.747789
12 2 0.656701 0.155313 0.748985
13 1 0.837737 0.276005 0.318758
14 2 0.836656 0.254759 0.344188
15 2 0.839481 0.306619 0.330594
16 1 0.178628 0.353882 0.593691
17 2 0.179841 0.321298 0.587939
18 2 0.1863 0.36522 0.611819
19 1 0.446051 0.368062 0.625542
20 2 0.44611 0.401238 0.622309
21 2 0.45543 0.356578 0.624136
22 1 0.132022 0.350834 0.332015
23 2 0.12897 0.341358 0.362311
24 2 0.139891 0.332421 0.322839
25 1 0.460952 0.783905 0.225494
26 2 0.453114 0.789547 0.205578
27 2 0.46648 0.811588 0.227756
28 1 0.528199 0.325432 0.0893487
29 2 0.524154 0.340221 0.116005
30 2 0.537568 0.316159 0.0963982
31 1 0.601529 0.399464 0.0816502
32 2 0.605796 0.404088 0.0518606
33 2 0.608235 0.386583 0.102756
34 1 0.018769 0.944396 0.896643
35 2 0.0223462 0.92611 0.921833
36 2 0.0191898 0.976703 0.904729
37 1 0.307631 0.281662 0.726318
38 2 0.30847 0.265649 0.697217
39 2 0.308628 0.259894 0.751342
40 1 0.433697 0.182393 0.384135
41 2 0.441562 0.170438 0.400895
42 2 0.431099 0.160851 0.360217
43 1 0.0572472 0.756989 0.334573
44 2 0.054319 0.725373 0.338602
45 2 0.0646777 0.758219 0.312299
46 1 0.659934 0.251668 0.656093
47 2 0.664346 0.267245 0.68163
48 2 0.651812 0.268734 0.646772
49 1 0.538626 0.256064 0.0184667
50 2 0.535745 0.283574 0.0346551
51 2 0.532817 0.230497 0.0275446
52 1 0.786417 0.736071 0.852748
53 2 0.786632 0.746548 0.884384
54 2 0.777021 0.737175 0.841386
55 1 0.584698 0.84496 0.0846949
56 2 0.576361 0.858085 0.0975955
57 2 0.584071 0.845017 0.0514272
58 1 0.223182 0.198682 0.394516
59 2 0.22663 0.177526 0.417568
60 2 0.222784 0.183286 0.364982
61 1 0.398342 0.228377 0.798204
62 2 0.389579 0.23281 0.813638
63 2 0.405623 0.242657 0.816041
64 1 0.358612 0.252372 0.494227
65 2 0.351016 0.258632 0.47347
66 2 0.356501 0.225412 0.512523
67 1 0.17762 0.698181 0.154457
68 2 0.174246 0.674171 0.174661
69 2 0.187535 0.695362 0.151173
70 1 0.915109 0.692012 0.30982
71 2 0.910302 0.712061 0.288552
72 2 0.924965 0.696983 0.307163
73 1 0.0194159 0.744908 0.630847
74 2 0.0248445 0.736259 0.657471
75 2 0.0223317 0.726953 0.604498
76 1 0.760939 0.808884 0.0496366
77 2 0.752613 0.793597 0.0392858
78 2 0.758493 0.835926 0.0673392
79 1 0.392706 0.135173 0.789948
80 2 0.398505 0.160762 0.799038
81 2 0.398441 0.110107 0.779116
82 1 0.618838 0.363294 0.149343
83 2 0.612846 0.363401 0.176028
84 2 0.627928 0.352582 0.158189
85 1 0.295519 0.336737 0.658061
86 2 0.294507 0.324785 0.688994
87 2 0.298835 0.368154 0.659434
88 1 0.623648 0.810587 0.507369
89 2 0.614357 0.816068 0.518412
90 2 0.626248 0.779047 0.51379
91 1 0.145147 0.686905 0.656414
92 2 0.150181 0.692872 0.684591
93 2 0.136017 0.700334 0.658552
94 1 0.536192 0.749754 0.610558
95 2 0.542783 0.725285 0.605107
96 2 0.53977 0.770411 0.633843
97 1 0.524761 0.406904 0.153971
98 2 0.532263 0.421342 0.170622
99 2 0.516906 0.42752 0.153174
100 1 0.14465 0.164461 0.594232
101 2 0.153437 0.149293 0.599043
102 2 0.142658 0.1657 0.56159
103 1 0.313312 0.411676 0.653916
104 2 0.319737 0.432472 0.668748
105 2 0.307113 0.429076 0.634386
106 1 0.24452 0.427334 0.701297
107 2 0.240312 0.397131 0.699836
108 2 0.254249 0.424195 0.708345
109 1 0.235626 0.15246 0.463244
110 2 0.233447 0.14533 0.494986
111 2 0.242015 0.178081 0.462204
112 1 0.178186 0.733553 0.676518
113 2 0.170205 0.720042 0.66166
114 2 0.185496 0.737597 0.654134
115 1 0.59904 0.786193 0.7446
116 2 0.600122 0.808239 0.719859
117 2 0.598365 0.802372 0.773657
118 1 0.217086 0.800639 0.379986
119 2 0.226126 0.795001 0.366895
120 2 0.216923 0.83088 0.393995
121 1 0.960412 0.808289 0.647911
122 2 0.951118 0.81785 0.655662
123 2 0.966804 0.832967 0.654846
124 1 0.129404 0.341473 0.419492
125 2 0.133812 0.371269 0.416768
126 2 0.122538 0.342542 0.443704
127 1 0.78991 0.784963 0.931587
128 2 0.783417 0.809954 0.935849
129 2 0.795816 0.782623 0.958384
130 1 0.504025 0.478667 0.177167
131 2 0.499628 0.489239 0.205177
132 2 0.498864 0.489636 0.150806
133 1 0.149506 0.482405 0.799403
134 2 0.144169 0.496149 0.77479
135 2 0.15924 0.487797 0.794009
136 1 0.304231 0.481942 0.607072
137 2 0.297498 0.489405 0.63056
138 2 0.307747 0.510072 0.593565
139 1 0.390192 0.941823 0.86851
140 2 0.381903 0.923178 0.868244
141 2 0.388004 0.972331 0.87979
142 1 0.245097 0.594652 0.240713
143 2 0.243169 0.578736 0.212139
144 2 0.237264 0.613668 0.248954
145 1 0.313569 0.265549 0.631935
146 2 0.320289 0.286045 0.645688
147 2 0.30509 0.282249 0.626153
148 1 0.440175 0.0747902 0.345774
149 2 0.447032 0.0581493 0.328119
150 2 0.432633 0.0543117 0.353506
151 1 0.892639 0.108504 0.285879
152 2 0.88511 0.122009 0.268588
153 2 0.889183 0.0831729 0.30423
154 1 0.487926 0.824459 0.261158
155 2 0.496399 0.829986 0.244344
156 2 0.487935 0.793297 0.272993
157 1 0.686671 0.79865 0.24028
158 2 0.679241 0.797689 0.262571
159 2 0.682962 0.793718 0.209719
160 1 0.726523 0.359809 0.513726
161 2 0.719437 0.360633 0.537233
162 2 0.729308 0.390929 0.506208
163 1 0.608251 0.467577 0.139465
164 2 0.608718 0.444451 0.16342
165 2 0.603772 0.454731 0.112573
166 1 0.493521 0.235281 0.641086
167 2 0.501399 0.219622 0.627806
168 2 0.485094 0.222567 0.62842
169 1 0.0713279 0.601518 0.635369
170 2 0.0798454 0.586848 0.644847
171 2 0.0686279 0.589993 0.605415
172 1 0.0872789 0.449375 0.267123
173 2 0.0917223 0.44295 0.296286
174 2 0.0906487 0.428117 0.244036
175 1 0.637566 0.294749 0.621193
176 2 0.62792 0.285962 0.62077
177 2 0.640106 0.307343 0.591514
178 1 0.417228 0.846809 0.129678
179 2 0.415726 0.836434 0.0983989
180 2 0.425348 0.831868 0.142142
181 1 0.298597 0.130137 0.931993
182 2 0.305725 0.110635 0.944888
183 2 0.290772 0.11142 0.923023
184 1 0.834804 0.273548 0.638119
185 2 0.828509 0.271668 0.663952
186 2 0.836415 0.305545 0.630474
187 1 0.820005 0.465756 0.547158
188 2 0.823492 0.492167 0.563845
189 2 0.810366 0.470581 0.53971
190 1 0.256612 0.11822 0.782402
191 2 0.260732 0.125349 0.811925
192 2 0.248276 0.10041 0.787085
193 1 0.903223 0.637474 0.461444
194 2 0.897205 0.62747 0.436774
195 2 0.910254 0.657756 0.449175
196 1 0.335907 0.588767 0.84932
197 2 0.33095 0.571253 0.872372
198 2 0.341602 0.611713 0.864294
199 1 0.101255 0.637773 0.84041
200 2 0.107477 0.62782 0.864532
201 2 0.0957884 0.611861 0.830033
202 1 0.100378 0.253623 0.81659
203 2 0.0917323 0.247745 0.832273
204 2 0.101339 0.232549 0.790963
205 1 0.584038 0.350548 0.141409
206 2 0.578267 0.372691 0.125576
207 2 0.589365 0.333293 0.119092
208 1 0.69875 0.0344095 0.249731
209 2 0.700306 0.00897761 0.270645
210 2 0.700043 0.02404 0.218346
211 1 0.560365 0.706404 0.603155
212 2 0.565965 0.698816 0.629708
213 2 0.5659 0.703861 0.57551
214 1 0.215094 0.719761 0.329013
215 2 0.212367 0.692892 0.346521
216 2 0.21218 0.747302 0.345083
217 1 0.348651 0.590869 0.74274
218 2 0.342875 0.569608 0.725761
219 2 0.343805 0.601122 0.770034
220 1 0.794181 0.694811 0.722224
221 2 0.800648 0.693037 0.747586
222 2 0.797159 0.674463 0.69776
223 1 0.110626 0.38686 0.282318
224 2 0.117814 0.382211 0.305021
225 2 0.112613 0.368545 0.255266
226 1 0.251551 0.82952 0.409912
227 2 0.254568 0.79812 0.414809
228 2 0.259292 0.847987 0.399698
229 1 0.850944 0.85179 0.716287
230 2 0.854292 0.821743 0.707131
231 2 0.840945 0.851678 0.716482
232 1 0.514257 0.660773 0.600866
233 2 0.518656 0.688623 0.611844
234 2 0.515254 0.658777 0.567759
235 1 0.211245 0.671425 0.416457
236 2 0.205642 0.674696 0.443872
237 2 0.220251 0.65959 0.424811
238 1 0.0759563 0.550201 0.268284
239 2 0.077504 0.517829 0.274332
240 2 0.0808168 0.559037 0.240526
241 1 0.970568 0.758768 0.574587
242 2 0.966869 0.771639 0.602756
243 2 0.963145 0.754094 0.552746
244 1 0.37456 0.194679 0.824419
245 2 0.379717 0.174274 0.804437
246 2 0.366874 0.178106 0.837837
247 1 0.4049 0.844929 0.922595
248 2 0.401052 0.87511 0.916616
249 2 0.414036 0.842945 0.909195
250 1 0.833613 0.350032 0.379622
251 2 0.833665 0.382232 0.371003
252 2 0.828875 0.346413 0.408753
253 1 0.183598 0.473577 0.599418
254 2 0.177555 0.450441 0.586379
255 2 0.178252 0.494425 0.618363
256 1 0.575428 0.692263 0.673376
257 2 0.571599 0.676506 0.699831
258 2 0.585334 0.687758 0.672624
259 1 0.534389 0.00357338 0.628475
260 2 0.54318 0.018487 0.622995
261 2 0.530714 0.0135926 0.657811
262 1 0.974469 0.193939 0.535828
263 2 0.973796 0.222577 0.552738
264 2 0.966378 0.175313 0.541892
265 1 0.73871 0.118169 0.491936
266 2 0.744067 0.144054 0.480882
267 2 0.740434 0.0916371 0.472592
268 1 0.66004 0.311309 0.385397
269 2 0.655287 0.283468 0.376183
270 2 0.668084 0.315738 0.366096
271 1 0.808878 0.704236 0.792461
272 2 0.818004 0.712679 0.803164
273 2 0.802035 0.714795 0.814354
274 1 0.898254 0.626481 0.352249
275 2 0.901121 0.594583 0.353766
276 2 0.906235 0.645802 0.346769
277 1 0.834443 0.526632 0.602712
278 2 0.837274 0.506713 0.627717
279 2 0.836375 0.558339 0.610729
280 1 0.485252 0.735495 0.27662
281 2 0.476003 0.723692 0.271988
282 2 0.49021 0.715493 0.297545
283 1 0.378531 0.183641 0.54767
284 2 0.387119 0.181027 0.564545
285 2 0.377899 0.213967 0.533996
286 1 0.0598384 0.52743 0.569005
287 2 0.0564978 0.509514 0.594814
288 2 0.0531854 0.526088 0.544155
289 1 0.283119 0.627138 0.138447
290 2 0.293109 0.628363 0.139255
291 2 0.280099 0.595653 0.142744
292 1 0.0571865 0.659141 0.323548
293 2 0.0526444 0.647013 0.296441
294 2 0.0653438 0.641019 0.330132
295 1 0.124356 0.4492 0.820508
296 2 0.133436 0.463149 0.82122
297 2 0.124928 0.417934 0.831906
298 1 0.223084 0.649484 0.262412
299 2 0.224549 0.677241 0.28021
300 2 0.213312 0.642462 0.261494
ITEM: TIMESTEP
1000
ITEM: NUMBER OF ATOMS
300
ITEM: BOX BOUNDS pp ff pp
0.0000000000000000e+00 1.0000000000000000e+02
0.0000000000000000e+00 3.0000000000000000e+01
0.0000000000000000e+00 3.0000000000000000e+01
ITEM: ATOMS id type xs ys zs
1 1 0.366157 0.916119 0.855806
2 2 0.368043 0.926193 0.824659
3 2 0.361912 0.885948 0.855082
4 1 0.60569 0.399354 0.2081
5 2 0.59762 0.383998 0.195778
6 2 0.603991 0.432168 0.209621
7 1 0.0452829 0.928476 0.551746
8 2 0.0409197 0.90613 0.571752
9 2 0.0538778 0.916006 0.540135
10 1 0.656324 0.148272 0.729353
11 2 0.657319 0.178882 0.71658
12 2 0.653822 0.150511 0.761548
13 1 0.841334 0.290612 0.346848
14 2 0.846376 0.275188 0.371151
15 2 0.836636 0.317252 0.359347
16 1 0.180695 0.345056 0.597489
17 2 0.174853 0.328688 0.619031
18 2 0.17757 0.339136 0.566383
19 1 0.451699 0.405184 0.643777
20 2 0.444031 0.385577 0.652342
21 2 0.450926 0.434373 0.659666
22 1 0.132863 0.36621 0.326215
23 2 0.131907 0.362567 0.359195
24 2 0.141479 0.381734 0.319477
25 1 0.453761 0.786537 0.204954
26 2 0.44991 0.815411 0.194342
27 2 0.462395 0.792312 0.22075
28 1 0.536659 0.3317 0.119773
29 2 0.541282 0.32385 0.14827
30 2 0.530024 0.355989 0.125426
31 1 0.602564 0.360274 0.0789813
32 2 0.606025 0.362134 0.0477643
33 2 0.610243 0.360658 0.10033
34 1 0.0354714 0.925374 0.935085
35 2 0.0372891 0.892603 0.9344
36 2 0.0259404 0.930621 0.943702
37 1 0.299453 0.293176 0.768365
38 2 0.29001 0.284333 0.774853
39 2 0.30527 0.285004 0.794218
40 1 0.429236 0.173284 0.366084
41 2 0.432339 0.152042 0.389598
42 2 0.428393 0.157188 0.337029
43 1 0.0534877 0.745814 0.286526
44 2 0.0540663 0.712605 0.288673
45 2 0.0481117 0.754191 0.259697
46 1 0.65299 0.247931 0.684342
47 2 0.65732 0.23263 0.658482
48 2 0.645594 0.26748 0.673338
49 1 0.534005 0.255536 0.0517941
50 2 0.540458 0.277819 0.0394673
51 2 0.531253 0.26475 0.0824871
52 1 0.78816 0.71466 0.830926
53 2 0.785182 0.736579 0.853995
54 2 0.782782 0.718888 0.803142
55 1 0.584683 0.84644 0.0750885
56 2 0.590769 0.853684 0.100527
57 2 0.576855 0.867177 0.0754351
58 1 0.22247 0.204259 0.39949
59 2 0.22597 0.199081 0.430282
60 2 0.227085 0.183753 0.378185
61 1 0.401443 0.225462 0.804792
62 2 0.391608 0.228911 0.809735
63 2 0.405939 0.254983 0.808667
64 1 0.352462 0.233245 0.511148
65 2 0.344608 0.24228 0.492599
66 2 0.355679 0.259448 0.528741
67 1 0.185961 0.696158 0.166307
68 2 0.179747 0.722274 0.166063
69 2 0.195372 0.70689 0.169742
70 1 0.90746 0.699167 0.312611
71 2 0.91576 0.703236 0.330753
72 2 0.901309 0.678013 0.328207
73 1 0.0133015 0.743747 0.640578
74 2 0.0178799 0.723184 0.619238
75 2 0.00672118 0.762634 0.624047
76 1 0.766083 0.827225 0.0355593
77 2 0.767493 0.817744 0.0671685
78 2 0.756279 0.829195 0.0292936
79 1 0.384149 0.118843 0.79184
80 2 0.391335 0.0956722 0.792543
81 2 0.383079 0.130197 0.760703
82 1 0.622747 0.379202 0.146058
83 2 0.617237 0.38446 0.173373
84 2 0.628433 0.405966 0.140091
85 1 0.29818 0.329843 0.677693
86 2 0.296974 0.324586 0.710364
87 2 0.29972 0.362319 0.672215
88 1 0.625095 0.80441 0.492976
89 2 0.622102 0.775933 0.507139
90 2 0.634853 0.808882 0.498737
91 1 0.149523 0.705369 0.644842
92 2 0.14637 0.734927 0.633575
93 2 0.142438 0.682439 0.63959
94 1 0.538794 0.754698 0.609719
95 2 0.546011 0.731625 0.609387
96 2 0.542271 0.782631 0.623737
97 1 0.520678 0.411757 0.157819
98 2 0.512144 0.39471 0.16119
99 2 0.518615 0.444052 0.15325
100 1 0.143452 0.175823 0.599705
101 2 0.137066 0.160031 0.619919
102 2 0.152806 0.166551 0.606976
103 1 0.307476 0.411802 0.6209
104 2 0.31609 0.408069 0.604382
105 2 0.304273 0.443212 0.617661
106 1 0.242466 0.425955 0.68756
107 2 0.240377 0.442151 0.65927
108 2 0.249423 0.402749 0.681655
109 1 0.235945 0.179259 0.471753
110 2 0.245695 0.184585 0.466615
111 2 0.233541 0.188534 0.502751
112 1 0.178079 0.73857 0.668451
113 2 0.168246 0.736898 0.662613
114 2 0.181002 0.711321 0.684995
115 1 0.588342 0.764635 0.728722
116 2 0.580341 0.760208 0.748224
117 2 0.592181 0.794938 0.734111
118 1 0.223672 0.810877 0.347256
119 2 0.230014 0.825203 0.368679
120 2 0.22162 0.832131 0.322505
121 1 0.975057 0.777999 0.642481
122 2 0.977091 0.756277 0.666839
123 2 0.975745 0.809066 0.654342
124 1 0.125381 0.351302 0.416692
125 2 0.116435 0.366179 0.415937
126 2 0.126312 0.334068 0.445055
127 1 0.788425 0.773112 0.902741
128 2 0.795801 0.758475 0.919837
129 2 0.784379 0.797352 0.921226
130 1 0.511793 0.491776 0.149544
131 2 0.508613 0.51152 0.174221
132 2 0.506994 0.499635 0.121376
133 1 0.150019 0.482795 0.817529
134 2 0.157044 0.462253 0.805664
135 2 0.152188 0.514131 0.808762
136 1 0.300626 0.492063 0.577154
137 2 0.292273 0.501918 0.592609
138 2 0.3065 0.518467 0.571628
139 1 0.390003 0.922098 0.904076
140 2 0.382158 0.912949 0.885541
141 2 0.388388 0.952498 0.916646
142 1 0.243206 0.625369 0.20571
143 2 0.23746 0.63626 0.180696
144 2 0.23804 0.626573 0.234225
145 1 0.317506 0.292329 0.623426
146 2 0.323237 0.282797 0.649025
147 2 0.309136 0.306409 0.635022
148 1 0.426747 0.0442353 0.352671
149 2 0.434716 0.0242527 0.355151
150 2 0.418405 0.0263074 0.356731
151 1 0.888864 0.0929269 0.292788
152 2 0.891337 0.0889632 0.324842
153 2 0.887819 0.125406 0.286146
154 1 0.479217 0.790666 0.254397
155 2 0.488246 0.779332 0.245634
156 2 0.480256 0.817695 0.273594
157 1 0.689159 0.812241 0.245576
158 2 0.682422 0.823858 0.267298
159 2 0.695672 0.836392 0.238056
160 1 0.728896 0.371713 0.486015
161 2 0.718955 0.372818 0.482571
162 2 0.732931 0.399284 0.472975
163 1 0.59705 0.49116 0.174334
164 2 0.601895 0.511671 0.153608
165 2 0.590179 0.473934 0.15731
166 1 0.480498 0.20677 0.642303
167 2 0.474931 0.232587 0.63229
168 2 0.489006 0.218018 0.655733
169 1 0.0677309 0.61009 0.632382
170 2 0.0739723 0.59955 0.656197
171 2 0.0645369 0.583996 0.614582
172 1 0.108149 0.466501 0.264697
173 2 0.106493 0.43561 0.275939
174 2 0.117418 0.468472 0.252338
175 1 0.63915 0.301276 0.639186
176 2 0.639348 0.333372 0.630213
177 2 0.634188 0.283659 0.616228
178 1 0.419799 0.846849 0.110351
179 2 0.422143 0.833828 0.140024
180 2 0.427338 0.865947 0.0996324
181 1 0.299893 0.115894 0.925218
182 2 0.298504 0.14713 0.935893
183 2 0.305116 0.0988457 0.947962
184 1 0.830272 0.290893 0.623025
185 2 0.837922 0.270869 0.615276
186 2 0.832788 0.322523 0.616675
187 1 0.821445 0.476767 0.560869
188 2 0.828967 0.492434 0.576261
189 2 0.814445 0.468531 0.583204
190 1 0.254789 0.101952 0.763897
191 2 0.255794 0.0823204 0.790627
192 2 0.2629 0.0991555 0.7446
193 1 0.898336 0.662517 0.440762
194 2 0.901645 0.642424 0.416559
195 2 0.892743 0.644987 0.462121
196 1 0.333343 0.597866 0.861982
197 2 0.335225 0.57362 0.883981
198 2 0.328335 0.622479 0.877034
199 1 0.12178 0.580147 0.801295
200 2 0.115518 0.599863 0.81823
201 2 0.118774 0.548468 0.803959
202 1 0.105366 0.268727 0.805689
203 2 0.09566 0.262086 0.810198
204 2 0.106333 0.297016 0.788357
205 1 0.581579 0.387749 0.138304
206 2 0.572034 0.387166 0.128381
207 2 0.587365 0.374518 0.114557
208 1 0.703039 0.0421185 0.263984
209 2 0.704669 0.0337134 0.232189
210 2 0.711789 0.0475486 0.279182
211 1 0.559361 0.699332 0.630277
212 2 0.568199 0.684056 0.63341
213 2 0.552062 0.678587 0.639701
214 1 0.210016 0.72271 0.346611
215 2 0.212577 0.705233 0.31954
216 2 0.214266 0.752855 0.345297
217 1 0.349616 0.563602 0.749671
218 2 0.358168 0.554847 0.764566
219 2 0.342792 0.571213 0.772816
220 1 0.79789 0.696645 0.728979
221 2 0.792946 0.672772 0.712559
222 2 0.803377 0.682871 0.753205
223 1 0.108282 0.352931 0.286991
224 2 0.116265 0.353852 0.307047
225 2 0.106282 0.321309 0.278823
226 1 0.250165 0.806611 0.387287
227 2 0.24776 0.77434 0.389603
228 2 0.253431 0.817505 0.41685
229 1 0.844815 0.842587 0.697347
230 2 0.850152 0.869479 0.688894
231 2 0.844929 0.82067 0.672234
232 1 0.515733 0.691662 0.625393
233 2 0.510016 0.718825 0.622207
234 2 0.52526 0.699562 0.619041
235 1 0.21118 0.662208 0.410697
236 2 0.20253 0.648775 0.42066
237 2 0.20938 0.685687 0.38781
238 1 0.0777585 0.548261 0.267113
239 2 0.0869986 0.537508 0.273955
240 2 0.0728757 0.524984 0.249667
241 1 0.96611 0.748668 0.558776
242 2 0.967275 0.752771 0.591627
243 2 0.962946 0.777219 0.545184
244 1 0.375478 0.196392 0.831324
245 2 0.380065 0.169305 0.819341
246 2 0.366004 0.196952 0.820669
247 1 0.403199 0.853239 0.923649
248 2 0.397241 0.877257 0.911826
249 2 0.412263 0.86587 0.929879
250 1 0.833885 0.367752 0.386472
251 2 0.828161 0.39383 0.378287
252 2 0.836087 0.369117 0.418958
253 1 0.204844 0.452028 0.563414
254 2 0.206475 0.420881 0.552857
255 2 0.202405 0.451543 0.595737
256 1 0.581956 0.680116 0.664512
257 2 0.586765 0.655466 0.680215
258 2 0.585423 0.709486 0.675235
259 1 0.529625 0.0225201 0.616806
260 2 0.524164 0.0104442 0.59163
261 2 0.531119 0.0551647 0.61226
262 1 0.975076 0.194047 0.541868
263 2 0.976976 0.2263 0.547413
264 2 0.966175 0.190945 0.527
265 1 0.726146 0.0813126 0.542367
266 2 0.722943 0.0526865 0.529035
267 2 0.724707 0.0806788 0.575347
268 1 0.655467 0.29001 0.377202
269 2 0.649797 0.270207 0.358183
270 2 0.665086 0.285945 0.369042
271 1 0.813719 0.674789 0.804103
272 2 0.819045 0.692636 0.825954
273 2 0.804087 0.683515 0.806115
274 1 0.900505 0.585916 0.358273
275 2 0.894513 0.564604 0.342209
276 2 0.909087 0.570656 0.366003
277 1 0.839455 0.530559 0.613308
278 2 0.837575 0.551331 0.588003
279 2 0.838188 0.546646 0.642195
280 1 0.477912 0.734762 0.354899
281 2 0.473494 0.72339 0.327241
282 2 0.473511 0.721306 0.381634
283 1 0.380815 0.19372 0.53577
284 2 0.385492 0.22303 0.538772
285 2 0.372556 0.197612 0.517385
286 1 0.0574091 0.520921 0.596004
287 2 0.0542633 0.516698 0.627362
288 2 0.0533768 0.497438 0.576537
289 1 0.280991 0.635098 0.141065
290 2 0.275176 0.609102 0.148781
291 2 0.284735 0.64833 0.168998
292 1 0.0630637 0.645154 0.296861
293 2 0.0630515 0.617886 0.316033
294 2 0.0665324 0.637421 0.266569
295 1 0.126382 0.436547 0.807536
296 2 0.134329 0.455849 0.813597
297 2 0.121964 0.428526 0.836344
298 1 0.226498 0.644801 0.310117
299 2 0.220894 0.64413 0.337718
300 2 0.236132 0.641342 0.318348
ITEM: TIMESTEP
1100
ITEM: NUMBER OF ATOMS
300
ITEM: BOX BOUNDS pp ff pp
0.0000000000000000e+00 1.0000000000000000e+02
0.0000000000000000e+00 3.0000000000000000e+01
0.0000000000000000e+00 3.0000000000000000e+01
ITEM: ATOMS id type xs ys zs
1 1 0.36819 0.910575 0.85364
2 2 0.369096 0.940437 0.839139
3 2 0.359623 0.896363 0.843965
4 1 0.611419 0.438587 0.192853
5 2 0.607871 0.412999 0.210643
6 2 0.604921 0.463897 0.194038
7 1 0.0471697 0.917371 0.533448
8 2 0.0556962 0.905774 0.520454
9 2 0.0478948 0.917986 0.566688
10 1 0.648536 0.145444 0.713461
11 2 0.651952 0.176703 0.715559
12 2 0.64484 0.136102 0.742991
13 1 0.846215 0.305674 0.372182
14 2 0.851776 0.292737 0.39668
15 2 0.844362 0.337777 0.378691
16 1 0.188676 0.358561 0.607592
17 2 0.187449 0.361681 0.640527
18 2 0.186857 0.327046 0.598581
19 1 0.456606 0.433903 0.660409
20 2 0.450382 0.414949 0.642479
21 2 0.452015 0.443779 0.688328
22 1 0.13327 0.376313 0.337185
23 2 0.12923 0.38293 0.366949
24 2 0.143166 0.380872 0.338656
25 1 0.454979 0.775608 0.195976
26 2 0.464657 0.778495 0.188098
27 2 0.453929 0.776829 0.229103
28 1 0.545635 0.361836 0.15214
29 2 0.546356 0.334825 0.132756
30 2 0.536646 0.375845 0.148013
31 1 0.597794 0.344399 0.123874
32 2 0.594966 0.313354 0.116228
33 2 0.607691 0.345152 0.12858
34 1 0.0506077 0.910408 0.980458
35 2 0.0583295 0.901119 0.961423
36 2 0.0431428 0.888506 0.976954
37 1 0.297663 0.320826 0.779396
38 2 0.297121 0.354028 0.781743
39 2 0.289388 0.307259 0.792284
40 1 0.418949 0.156664 0.349667
41 2 0.414596 0.12666 0.349048
42 2 0.417585 0.171811 0.320324
43 1 0.0489752 0.713917 0.234313
44 2 0.0536028 0.689388 0.25079
45 2 0.0397725 0.718037 0.246689
46 1 0.649622 0.238365 0.717763
47 2 0.656701 0.248619 0.738956
48 2 0.649243 0.259075 0.691675
49 1 0.530751 0.276645 0.103909
50 2 0.526006 0.30487 0.111931
51 2 0.524033 0.252985 0.0968462
52 1 0.799415 0.69852 0.830238
53 2 0.79483 0.71846 0.852145
54 2 0.794802 0.700571 0.800736
55 1 0.585123 0.85716 0.0679314
56 2 0.581854 0.874992 0.0419623
57 2 0.590333 0.830934 0.0568977
58 1 0.218275 0.206666 0.383557
59 2 0.222127 0.211923 0.413866
60 2 0.221756 0.22969 0.36243
61 1 0.393827 0.236942 0.794904
62 2 0.388376 0.218165 0.8156
63 2 0.397028 0.264101 0.811018
64 1 0.351897 0.204646 0.522431
65 2 0.343318 0.197065 0.537783
66 2 0.351909 0.236985 0.51435
67 1 0.195949 0.704628 0.179617
68 2 0.204398 0.716305 0.166141
69 2 0.196885 0.67193 0.185291
70 1 0.895677 0.67932 0.324971
71 2 0.901153 0.707103 0.327439
72 2 0.900347 0.657529 0.305122
73 1 0.0133996 0.730476 0.635464
74 2 0.0226868 0.727068 0.623584
75 2 0.00833759 0.702108 0.630808
76 1 0.769865 0.846176 0.018325
77 2 0.778383 0.861934 0.025854
78 2 0.763591 0.847989 0.044216
79 1 0.374984 0.0983365 0.818122
80 2 0.376214 0.0652755 0.816986
81 2 0.383931 0.113223 0.818481
82 1 0.627973 0.381389 0.127449
83 2 0.627139 0.410414 0.143602
84 2 0.632232 0.386527 0.0977305
85 1 0.308824 0.329072 0.692558
86 2 0.306882 0.317568 0.723166
87 2 0.305164 0.359939 0.689479
88 1 0.621669 0.792771 0.500181
89 2 0.623025 0.813245 0.526094
90 2 0.625671 0.806361 0.472824
91 1 0.147272 0.72999 0.627962
92 2 0.146427 0.727838 0.661106
93 2 0.139427 0.746594 0.615644
94 1 0.545134 0.767983 0.621929
95 2 0.551835 0.746804 0.634721
96 2 0.547619 0.775195 0.590457
97 1 0.519269 0.404438 0.143694
98 2 0.512937 0.40948 0.168997
99 2 0.520066 0.432375 0.125707
100 1 0.143315 0.186993 0.614553
101 2 0.142345 0.154637 0.607225
102 2 0.150724 0.200084 0.596394
103 1 0.299797 0.392655 0.620498
104 2 0.306279 0.369584 0.609913
105 2 0.300975 0.420557 0.60269
106 1 0.236646 0.398857 0.67061
107 2 0.238428 0.414961 0.642036
108 2 0.245055 0.384215 0.681148
109 1 0.233397 0.213466 0.465744
110 2 0.242434 0.227631 0.467473
111 2 0.230336 0.205276 0.496403
112 1 0.181468 0.750902 0.653862
113 2 0.189502 0.731156 0.655888
114 2 0.17346 0.732631 0.645816
115 1 0.58009 0.742108 0.716014
116 2 0.570692 0.731992 0.710775
117 2 0.582243 0.739689 0.748475
118 1 0.226564 0.790156 0.314974
119 2 0.23406 0.794888 0.336524
120 2 0.230091 0.7757 0.287334
121 1 0.981434 0.759349 0.635227
122 2 0.990311 0.755585 0.650103
123 2 0.975023 0.736694 0.647108
124 1 0.117689 0.37382 0.41384
125 2 0.112974 0.346506 0.402974
126 2 0.111567 0.391258 0.433603
127 1 0.783705 0.764014 0.876289
128 2 0.778675 0.739821 0.891929
129 2 0.77725 0.786395 0.864158
130 1 0.516312 0.505652 0.120334
131 2 0.512078 0.528042 0.100068
132 2 0.523747 0.520097 0.137311
133 1 0.157167 0.47292 0.831614
134 2 0.161508 0.488069 0.85754
135 2 0.153221 0.495831 0.811285
136 1 0.303318 0.489834 0.572666
137 2 0.294745 0.506292 0.567795
138 2 0.309931 0.498684 0.549281
139 1 0.383021 0.927673 0.929457
140 2 0.379229 0.910896 0.903574
141 2 0.38786 0.954664 0.918392
142 1 0.238277 0.673903 0.222114
143 2 0.239623 0.70508 0.211206
144 2 0.242149 0.670868 0.252698
145 1 0.319174 0.331308 0.609296
146 2 0.328252 0.342609 0.601063
147 2 0.318759 0.32622 0.64221
148 1 0.411922 0.0323066 0.364898
149 2 0.418848 0.0203608 0.34403
150 2 0.414516 0.0251769 0.396291
151 1 0.882999 0.0935769 0.306716
152 2 0.886338 0.0714259 0.328999
153 2 0.887305 0.0878084 0.277191
154 1 0.466819 0.732785 0.280585
155 2 0.476487 0.728489 0.273235
156 2 0.466001 0.750969 0.308388
157 1 0.697636 0.833425 0.232741
158 2 0.690923 0.808892 0.229822
159 2 0.706011 0.821428 0.246452
160 1 0.727568 0.37322 0.495659
161 2 0.722206 0.381451 0.522565
162 2 0.735849 0.391871 0.494525
163 1 0.586345 0.490451 0.20025
164 2 0.584595 0.519824 0.185611
165 2 0.583459 0.465818 0.179957
166 1 0.473278 0.188334 0.637831
167 2 0.468012 0.17189 0.614752
168 2 0.469119 0.218178 0.643154
169 1 0.0648714 0.620136 0.610844
170 2 0.0680976 0.61741 0.642277
171 2 0.0615715 0.590505 0.600256
172 1 0.117812 0.439804 0.273551
173 2 0.11258 0.411751 0.269081
174 2 0.126804 0.432372 0.286094
175 1 0.641086 0.344244 0.627163
176 2 0.634218 0.326865 0.610281
177 2 0.648023 0.355628 0.606024
178 1 0.427536 0.833906 0.11525
179 2 0.434084 0.858591 0.110222
180 2 0.43035 0.816007 0.141759
181 1 0.300721 0.0960007 0.93029
182 2 0.302275 0.128846 0.932635
183 2 0.29754 0.0843005 0.959646
184 1 0.826919 0.313917 0.602497
185 2 0.828491 0.34539 0.612148
186 2 0.817529 0.31074 0.591481
187 1 0.82181 0.470916 0.557181
188 2 0.830344 0.485995 0.565818
189 2 0.820031 0.476095 0.524791
190 1 0.256418 0.0953604 0.763745
191 2 0.264651 0.0897953 0.781828
192 2 0.253014 0.0664692 0.751593
193 1 0.889129 0.660417 0.420579
194 2 0.892148 0.630064 0.411168
195 2 0.89005 0.681567 0.394998
196 1 0.336326 0.601762 0.862211
197 2 0.327415 0.601958 0.877335
198 2 0.338958 0.632994 0.854549
199 1 0.137056 0.519155 0.751038
200 2 0.13298 0.549497 0.753476
201 2 0.133954 0.50458 0.722901
202 1 0.114054 0.288632 0.784918
203 2 0.112901 0.302086 0.815172
204 2 0.122805 0.27256 0.78353
205 1 0.581643 0.419654 0.134906
206 2 0.57271 0.407092 0.126746
207 2 0.588814 0.398097 0.126245
208 1 0.710078 0.0509663 0.282709
209 2 0.708472 0.0283742 0.306626
210 2 0.707225 0.0810367 0.2935
211 1 0.555758 0.694474 0.661687
212 2 0.565068 0.694323 0.649519
213 2 0.552988 0.663281 0.668956
214 1 0.205406 0.736226 0.351258
215 2 0.201068 0.762371 0.366039
216 2 0.211798 0.746996 0.327994
217 1 0.351269 0.557463 0.762352
218 2 0.34921 0.526992 0.750711
219 2 0.344178 0.566678 0.783976
220 1 0.796909 0.709914 0.733671
221 2 0.799322 0.70964 0.701324
222 2 0.804083 0.694678 0.751195
223 1 0.11383 0.349501 0.271983
224 2 0.119683 0.351464 0.298939
225 2 0.115648 0.320918 0.25594
226 1 0.248178 0.788795 0.37151
227 2 0.244886 0.757634 0.375946
228 2 0.257825 0.790581 0.380103
229 1 0.838775 0.84786 0.6867
230 2 0.831762 0.871477 0.689312
231 2 0.847607 0.862046 0.68013
232 1 0.517064 0.720294 0.647872
233 2 0.513781 0.745812 0.629429
234 2 0.526943 0.723061 0.65224
235 1 0.214263 0.658841 0.390899
236 2 0.207746 0.634702 0.398421
237 2 0.209533 0.68331 0.374656
238 1 0.0839236 0.561629 0.274653
239 2 0.0934957 0.557726 0.283476
240 2 0.080085 0.532122 0.265895
241 1 0.960741 0.733693 0.557583
242 2 0.968259 0.752563 0.568859
243 2 0.957931 0.744499 0.527473
244 1 0.371856 0.189912 0.837688
245 2 0.368079 0.159054 0.838355
246 2 0.365297 0.210519 0.823247
247 1 0.402308 0.839612 0.916082
248 2 0.392745 0.837816 0.925669
249 2 0.408244 0.837304 0.942808
250 1 0.837017 0.383549 0.402904
251 2 0.836973 0.411765 0.420651
252 2 0.830301 0.362343 0.415567
253 1 0.209461 0.372587 0.548935
254 2 0.202375 0.367544 0.571907
255 2 0.205172 0.379481 0.519624
256 1 0.588361 0.669334 0.655628
257 2 0.596783 0.656351 0.643204
258 2 0.5903 0.699291 0.668738
259 1 0.52375 0.0487511 0.603119
260 2 0.530535 0.0608867 0.58185
261 2 0.514894 0.0631042 0.597329
262 1 0.975234 0.195595 0.547213
263 2 0.982689 0.217794 0.546346
264 2 0.970431 0.195692 0.517975
265 1 0.719733 0.0314435 0.573919
266 2 0.711843 0.0143663 0.562614
267 2 0.719786 0.06187 0.560306
268 1 0.646053 0.281487 0.347235
269 2 0.65415 0.273166 0.329533
270 2 0.63888 0.29224 0.326648
271 1 0.816958 0.62973 0.804672
272 2 0.810967 0.60307 0.803417
273 2 0.81179 0.656001 0.815817
274 1 0.902432 0.574748 0.37659
275 2 0.897868 0.545929 0.369576
276 2 0.911349 0.568562 0.390346
277 1 0.842183 0.519511 0.592949
278 2 0.852086 0.517593 0.58874
279 2 0.839933 0.547544 0.60935
280 1 0.465989 0.758117 0.371336
281 2 0.473958 0.738384 0.375343
282 2 0.459122 0.750761 0.394425
283 1 0.384595 0.210737 0.522233
284 2 0.388316 0.196049 0.495002
285 2 0.374623 0.20826 0.522028
286 1 0.0577703 0.534811 0.596704
287 2 0.0608722 0.508996 0.615082
288 2 0.0499429 0.525507 0.578162
289 1 0.271387 0.64253 0.15976
290 2 0.265802 0.670174 0.160302
291 2 0.26588 0.616986 0.148734
292 1 0.0676296 0.644865 0.270291
293 2 0.0672138 0.634603 0.301975
294 2 0.073961 0.625491 0.253251
295 1 0.131779 0.429226 0.827854
296 2 0.140787 0.443165 0.823958
297 2 0.13077 0.403912 0.80643
298 1 0.237684 0.645388 0.30919
299 2 0.234088 0.654375 0.338966
300 2 0.23577 0.613097 0.303929
ITEM: TIMESTEP
1200
ITEM: NUMBER OF ATOMS
300
ITEM: BOX BOUNDS pp ff pp
0.0000000000000000e+00 1.0000000000000000e+02
0.0000000000000000e+00 3.0000000000000000e+01
0.0000000000000000e+00 3.0000000000000000e+01
ITEM: ATOMS id type xs ys zs
1 1 0.371939 0.934802 0.860069
2 2 0.362201 0.935375 0.852509
3 2 0.377326 0.93513 0.831988
4 1 0.616675 0.471292 0.187006
5 2 0.619051 0.501876 0.176377
6 2 0.606739 0.468724 0.189775
7 1 0.0469224 0.906357 0.514135
8 2 0.0462913 0.903517 0.48099
9 2 0.0555474 0.921164 0.522215
10 1 0.644055 0.157131 0.691899
11 2 0.643912 0.190322 0.69494
12 2 0.634693 0.145444 0.692787
13 1 0.850558 0.309876 0.387244
14 2 0.857006 0.298041 0.409806
15 2 0.846013 0.336939 0.399458
16 1 0.197722 0.37249 0.635649
17 2 0.20626 0.389703 0.637834
18 2 0.198277 0.345449 0.655052
19 1 0.453086 0.441266 0.665277
20 2 0.449675 0.410522 0.671329
21 2 0.460675 0.439695 0.643627
22 1 0.133261 0.381508 0.341976
23 2 0.127439 0.373733 0.367939
24 2 0.142798 0.382919 0.351895
25 1 0.458292 0.742095 0.190896
26 2 0.454366 0.717177 0.208753
27 2 0.458046 0.770209 0.208785
28 1 0.547549 0.38708 0.169462
29 2 0.542651 0.365614 0.189051
30 2 0.54097 0.404695 0.151578
31 1 0.598525 0.357819 0.158833
32 2 0.607967 0.367709 0.154058
33 2 0.59235 0.377523 0.141538
34 1 0.0662072 0.892872 0.0273996
35 2 0.0721108 0.918804 0.0202325
36 2 0.0610307 0.884178 0.000237567
37 1 0.301501 0.32958 0.76173
38 2 0.292492 0.329456 0.776198
39 2 0.307619 0.349815 0.778634
40 1 0.411171 0.132658 0.351798
41 2 0.407957 0.102801 0.341556
42 2 0.413146 0.151787 0.325307
43 1 0.0547614 0.660027 0.205463
44 2 0.0595942 0.647301 0.231724
45 2 0.0611765 0.677311 0.186619
46 1 0.643573 0.23994 0.732167
47 2 0.637981 0.266474 0.739889
48 2 0.653061 0.249486 0.727747
49 1 0.528219 0.318897 0.165931
50 2 0.537424 0.31073 0.155782
51 2 0.521873 0.294302 0.158267
52 1 0.805587 0.693157 0.815089
53 2 0.801263 0.71993 0.828748
54 2 0.804745 0.694741 0.781911
55 1 0.586473 0.871583 0.0659419
56 2 0.58091 0.849342 0.0824533
57 2 0.584893 0.901986 0.0785543
58 1 0.217196 0.220749 0.393969
59 2 0.224956 0.235524 0.408927
60 2 0.212236 0.202166 0.416159
61 1 0.386427 0.252116 0.823109
62 2 0.380325 0.227419 0.832461
63 2 0.38305 0.265665 0.794809
64 1 0.355621 0.185141 0.521796
65 2 0.348439 0.206777 0.530149
66 2 0.3528 0.168054 0.494764
67 1 0.210717 0.705704 0.191112
68 2 0.217634 0.682302 0.185471
69 2 0.210505 0.72701 0.165487
70 1 0.884435 0.670297 0.314753
71 2 0.891897 0.683138 0.296653
72 2 0.887393 0.641495 0.328329
73 1 0.0135934 0.71268 0.629098
74 2 0.0168497 0.687902 0.648575
75 2 0.0160729 0.706354 0.597431
76 1 0.777336 0.87748 0.00491383
77 2 0.783624 0.902577 0.0113971
78 2 0.774896 0.862164 0.0333801
79 1 0.360106 0.0912972 0.849724
80 2 0.364228 0.0767697 0.823055
81 2 0.351256 0.0771558 0.856113
82 1 0.621536 0.401116 0.137782
83 2 0.618455 0.431331 0.147408
84 2 0.629321 0.391724 0.156477
85 1 0.307427 0.313937 0.675381
86 2 0.305111 0.31282 0.707789
87 2 0.30362 0.34165 0.661887
88 1 0.615421 0.783341 0.514441
89 2 0.621916 0.765122 0.49682
90 2 0.61916 0.789103 0.544814
91 1 0.150362 0.755709 0.594755
92 2 0.148424 0.759493 0.627237
93 2 0.141822 0.757389 0.577496
94 1 0.549928 0.774557 0.638387
95 2 0.556533 0.751081 0.647059
96 2 0.550431 0.77976 0.605505
97 1 0.523636 0.42727 0.127748
98 2 0.515843 0.406383 0.127902
99 2 0.521159 0.455149 0.111447
100 1 0.143458 0.182418 0.588855
101 2 0.148455 0.179136 0.617541
102 2 0.142934 0.152844 0.573575
103 1 0.29366 0.382729 0.628292
104 2 0.300764 0.375149 0.60609
105 2 0.294935 0.414075 0.638804
106 1 0.231048 0.379663 0.626727
107 2 0.238612 0.374105 0.647811
108 2 0.233462 0.404591 0.606112
109 1 0.231951 0.259504 0.472937
110 2 0.237539 0.24041 0.492927
111 2 0.224065 0.271014 0.489898
112 1 0.178909 0.749897 0.659967
113 2 0.187575 0.762724 0.649374
114 2 0.175439 0.728357 0.637308
115 1 0.575344 0.753893 0.731257
116 2 0.570725 0.727764 0.717426
117 2 0.572325 0.757272 0.762855
118 1 0.222023 0.778941 0.296915
119 2 0.230921 0.774164 0.311357
120 2 0.223164 0.79781 0.269701
121 1 0.987959 0.733433 0.609911
122 2 0.995016 0.726811 0.632583
123 2 0.991814 0.752577 0.585838
124 1 0.112749 0.385349 0.403558
125 2 0.111804 0.404345 0.430767
126 2 0.108923 0.401392 0.377269
127 1 0.783383 0.740324 0.862506
128 2 0.782124 0.764192 0.839619
129 2 0.778193 0.713251 0.853626
130 1 0.514187 0.507912 0.0966516
131 2 0.518179 0.519324 0.125003
132 2 0.506023 0.525667 0.089215
133 1 0.161656 0.464361 0.829359
134 2 0.169409 0.444445 0.836181
135 2 0.157422 0.45483 0.800703
136 1 0.305555 0.461057 0.584553
137 2 0.306913 0.494054 0.58322
138 2 0.310072 0.446715 0.5585
139 1 0.379194 0.922768 0.94294
140 2 0.376439 0.929806 0.91168
141 2 0.383977 0.893499 0.943513
142 1 0.23627 0.711847 0.22197
143 2 0.240928 0.688846 0.240435
144 2 0.226957 0.716114 0.233335
145 1 0.319882 0.338368 0.592945
146 2 0.328286 0.340285 0.574983
147 2 0.321591 0.320569 0.620547
148 1 0.394153 0.0250501 0.367066
149 2 0.399148 0.00469457 0.38755
150 2 0.385786 0.0354953 0.382034
151 1 0.877449 0.0906634 0.318489
152 2 0.886941 0.0935393 0.328569
153 2 0.871342 0.101507 0.342554
154 1 0.450421 0.70457 0.292397
155 2 0.445327 0.689266 0.316657
156 2 0.457243 0.724886 0.305863
157 1 0.702447 0.846319 0.233472
158 2 0.696533 0.857815 0.209174
159 2 0.697203 0.825984 0.253273
160 1 0.735634 0.369156 0.516812
161 2 0.738234 0.358276 0.48652
162 2 0.741276 0.354076 0.539835
163 1 0.589787 0.468076 0.193514
164 2 0.584724 0.485453 0.216413
165 2 0.584028 0.463534 0.166643
166 1 0.474369 0.168973 0.611487
167 2 0.466583 0.174972 0.591452
168 2 0.471096 0.156262 0.640305
169 1 0.0619304 0.630226 0.599022
170 2 0.0703228 0.634423 0.616655
171 2 0.0620735 0.600281 0.584389
172 1 0.115092 0.453708 0.28872
173 2 0.113585 0.442839 0.257611
174 2 0.121624 0.433696 0.304102
175 1 0.640581 0.349209 0.647623
176 2 0.637809 0.372097 0.625219
177 2 0.648696 0.333154 0.636595
178 1 0.440842 0.802039 0.145382
179 2 0.438996 0.824001 0.121073
180 2 0.450163 0.790382 0.14222
181 1 0.300732 0.0941858 0.918683
182 2 0.292939 0.114791 0.915272
183 2 0.302731 0.0899722 0.951071
184 1 0.818768 0.36122 0.568614
185 2 0.821649 0.390731 0.556449
186 2 0.818203 0.362981 0.601847
187 1 0.826987 0.433203 0.534275
188 2 0.833628 0.456131 0.544043
189 2 0.82032 0.447239 0.513776
190 1 0.263814 0.0833668 0.761124
191 2 0.259873 0.0553861 0.74865
192 2 0.272874 0.076845 0.773638
193 1 0.8825 0.697492 0.41631
194 2 0.891252 0.682389 0.421963
195 2 0.879484 0.690949 0.38521
196 1 0.339121 0.594902 0.865302
197 2 0.331048 0.581205 0.879422
198 2 0.338246 0.628105 0.865724
199 1 0.155963 0.464849 0.735705
200 2 0.163766 0.452039 0.719259
201 2 0.151763 0.488898 0.717354
202 1 0.122863 0.322313 0.772905
203 2 0.125252 0.341673 0.798846
204 2 0.125573 0.337407 0.744591
205 1 0.573309 0.417188 0.131664
206 2 0.56379 0.421302 0.12232
207 2 0.573686 0.396954 0.158124
208 1 0.719264 0.0528855 0.308735
209 2 0.719952 0.0198668 0.304783
210 2 0.710503 0.0635154 0.296687
211 1 0.558813 0.683457 0.657079
212 2 0.564604 0.658713 0.645847
213 2 0.550338 0.670781 0.669424
214 1 0.203634 0.752856 0.359296
215 2 0.199086 0.778517 0.374222
216 2 0.209188 0.764098 0.333958
217 1 0.350889 0.536277 0.787655
218 2 0.344837 0.509775 0.78627
219 2 0.346945 0.559193 0.807982
220 1 0.803483 0.705237 0.718929
221 2 0.805967 0.732245 0.701236
222 2 0.805755 0.677818 0.701552
223 1 0.121438 0.348522 0.262539
224 2 0.127079 0.351519 0.289899
225 2 0.11983 0.316234 0.256226
226 1 0.248539 0.760101 0.348393
227 2 0.245729 0.735699 0.369078
228 2 0.258207 0.756401 0.340722
229 1 0.83168 0.847923 0.676086
230 2 0.839066 0.87039 0.675789
231 2 0.829752 0.838896 0.707524
232 1 0.521279 0.744557 0.677755
233 2 0.531198 0.744039 0.673549
234 2 0.517264 0.767623 0.657758
235 1 0.221441 0.675361 0.366774
236 2 0.214708 0.660052 0.347461
237 2 0.21741 0.703019 0.379641
238 1 0.0920785 0.561101 0.277512
239 2 0.0992863 0.580389 0.264791
240 2 0.095172 0.529407 0.278046
241 1 0.962907 0.73215 0.57643
242 2 0.960545 0.702648 0.5898
243 2 0.970884 0.744716 0.592119
244 1 0.36757 0.184406 0.852161
245 2 0.367762 0.151255 0.855585
246 2 0.370106 0.198725 0.88105
247 1 0.40057 0.842644 0.919085
248 2 0.402894 0.874157 0.926701
249 2 0.398291 0.840587 0.886693
250 1 0.839971 0.37975 0.434133
251 2 0.830631 0.374842 0.42329
252 2 0.839975 0.403537 0.457484
253 1 0.213385 0.296528 0.525806
254 2 0.207522 0.283398 0.549402
255 2 0.210265 0.32738 0.518662
256 1 0.58519 0.644654 0.621374
257 2 0.58884 0.647612 0.590482
258 2 0.591845 0.656528 0.643237
259 1 0.516768 0.0788924 0.590071
260 2 0.510192 0.103593 0.594601
261 2 0.525198 0.0912226 0.577054
262 1 0.975641 0.198573 0.551202
263 2 0.985448 0.19567 0.557025
264 2 0.973762 0.191504 0.519235
265 1 0.711414 0.00245236 0.603884
266 2 0.71925 0.0226806 0.608311
267 2 0.702998 0.0204523 0.603505
268 1 0.635673 0.276032 0.318125
269 2 0.631835 0.303249 0.332501
270 2 0.637199 0.281934 0.285716
271 1 0.813557 0.610336 0.81624
272 2 0.820561 0.609517 0.840016
273 2 0.808887 0.639803 0.816965
274 1 0.900975 0.541281 0.390845
275 2 0.904172 0.527864 0.419437
276 2 0.893046 0.524263 0.379759
277 1 0.842131 0.504594 0.566656
278 2 0.84947 0.49033 0.584239
279 2 0.842932 0.537752 0.568782
280 1 0.457355 0.767373 0.371264
281 2 0.448323 0.779112 0.363088
282 2 0.460989 0.784796 0.396969
283 1 0.378867 0.257619 0.514418
284 2 0.388174 0.24554 0.516053
285 2 0.372412 0.234442 0.524955
286 1 0.0575576 0.545396 0.57814
287 2 0.0497032 0.547447 0.598669
288 2 0.0603903 0.513552 0.575324
289 1 0.25866 0.652953 0.173125
290 2 0.24946 0.640475 0.169261
291 2 0.25811 0.686051 0.176629
292 1 0.0719769 0.625727 0.265808
293 2 0.0656073 0.621237 0.291109
294 2 0.0791759 0.602633 0.26721
295 1 0.134903 0.439005 0.840085
296 2 0.143029 0.43985 0.859493
297 2 0.132884 0.469732 0.829057
298 1 0.243704 0.643565 0.308858
299 2 0.237926 0.663552 0.327315
300 2 0.24529 0.615014 0.325228
ITEM: TIMESTEP
1300
ITEM: NUMBER OF ATOMS
300
ITEM: BOX BOUNDS pp ff pp
0.0000000000000000e+00 1.0000000000000000e+02
0.0000000000000000e+00 3.0000000000000000e+01
0.0000000000000000e+00 3.0000000000000000e+01
ITEM: ATOMS id type xs ys zs
1 1 0.371666 0.947111 0.858293
2 2 0.365735 0.939717 0.832495
3 2 0.377361 0.973398 0.850567
4 1 0.611774 0.508835 0.170892
5 2 0.613732 0.513386 0.138522
6 2 0.606466 0.480862 0.174833
7 1 0.0435915 0.88705 0.495046
8 2 0.0495079 0.912578 0.503444
9 2 0.0465714 0.859584 0.51111
10 1 0.639742 0.173324 0.671632
11 2 0.641815 0.204102 0.682403
12 2 0.643052 0.151043 0.693833
13 1 0.857018 0.30816 0.39724
14 2 0.860696 0.284805 0.41762
15 2 0.850261 0.326481 0.413615
16 1 0.207018 0.374304 0.645932
17 2 0.212439 0.357692 0.623381
18 2 0.212661 0.397948 0.660013
19 1 0.445685 0.428448 0.661387
20 2 0.439872 0.437493 0.686956
21 2 0.443411 0.446849 0.634647
22 1 0.136725 0.382033 0.33943
23 2 0.127171 0.378724 0.348698
24 2 0.142616 0.380281 0.36631
25 1 0.463846 0.693141 0.220646
26 2 0.467406 0.662768 0.227565
27 2 0.456515 0.700659 0.24203
28 1 0.541525 0.401939 0.169837
29 2 0.536472 0.380439 0.188945
30 2 0.535751 0.428329 0.163183
31 1 0.604071 0.366233 0.170712
32 2 0.613901 0.372318 0.171376
33 2 0.599114 0.393187 0.181275
34 1 0.0804569 0.872181 0.0753756
35 2 0.0729458 0.893851 0.0715492
36 2 0.0813838 0.853783 0.0477516
37 1 0.307971 0.321566 0.740709
38 2 0.316881 0.310699 0.730173
39 2 0.309121 0.338578 0.769116
40 1 0.400989 0.105125 0.3579
41 2 0.39323 0.0849205 0.363733
42 2 0.398956 0.12456 0.33168
43 1 0.0637338 0.615257 0.17152
44 2 0.0690124 0.621546 0.199124
45 2 0.057894 0.588673 0.176568
46 1 0.63895 0.257713 0.71925
47 2 0.63557 0.281805 0.699156
48 2 0.631237 0.239802 0.730621
49 1 0.525933 0.338021 0.221611
50 2 0.516668 0.336075 0.209222
51 2 0.526493 0.320116 0.249665
52 1 0.80702 0.684573 0.785732
53 2 0.800261 0.698291 0.806113
54 2 0.805076 0.693621 0.754311
55 1 0.585998 0.879386 0.0550308
56 2 0.5915 0.906497 0.048726
57 2 0.58474 0.876217 0.0879472
58 1 0.225371 0.220533 0.404146
59 2 0.226487 0.24186 0.429493
60 2 0.233816 0.219438 0.386326
61 1 0.383756 0.254235 0.854821
62 2 0.377072 0.231179 0.863938
63 2 0.380264 0.271167 0.828574
64 1 0.364751 0.183236 0.508043
65 2 0.354953 0.181213 0.51439
66 2 0.367789 0.155317 0.492907
67 1 0.211594 0.707624 0.190069
68 2 0.212222 0.718453 0.158613
69 2 0.204856 0.683062 0.191891
70 1 0.875193 0.650965 0.321453
71 2 0.879298 0.664316 0.294147
72 2 0.877871 0.618937 0.32383
73 1 0.0263902 0.679168 0.624253
74 2 0.0231889 0.665732 0.652831
75 2 0.0346406 0.663301 0.614103
76 1 0.787436 0.891197 0.981223
77 2 0.790535 0.921866 0.989215
78 2 0.777491 0.891189 0.977757
79 1 0.344929 0.118869 0.85419
80 2 0.342075 0.0913761 0.837919
81 2 0.337634 0.128533 0.874841
82 1 0.627991 0.410604 0.158833
83 2 0.623843 0.44091 0.160072
84 2 0.636417 0.410463 0.176784
85 1 0.304099 0.313893 0.65166
86 2 0.301749 0.308923 0.683676
87 2 0.295929 0.323279 0.634887
88 1 0.609464 0.768078 0.536429
89 2 0.609054 0.797564 0.520944
90 2 0.611015 0.743974 0.513992
91 1 0.159726 0.773797 0.564314
92 2 0.167557 0.788173 0.549378
93 2 0.15934 0.783483 0.596184
94 1 0.552995 0.789281 0.658035
95 2 0.554837 0.777432 0.627489
96 2 0.560324 0.779931 0.678695
97 1 0.521833 0.452204 0.135858
98 2 0.519751 0.424932 0.117992
99 2 0.516016 0.477354 0.125728
100 1 0.142277 0.166963 0.563331
101 2 0.145193 0.17969 0.534096
102 2 0.1384 0.191178 0.582244
103 1 0.282705 0.359704 0.607868
104 2 0.278556 0.357202 0.577642
105 2 0.290538 0.380377 0.606462
106 1 0.228655 0.34234 0.574189
107 2 0.226587 0.309937 0.570494
108 2 0.236925 0.349862 0.557022
109 1 0.235562 0.26977 0.4738
110 2 0.243883 0.255422 0.485453
111 2 0.230681 0.284503 0.498886
112 1 0.174821 0.730693 0.66525
113 2 0.172039 0.746878 0.692876
114 2 0.16821 0.706592 0.658569
115 1 0.571151 0.749073 0.725975
116 2 0.57245 0.725308 0.703006
117 2 0.562974 0.742333 0.743937
118 1 0.222721 0.818163 0.31174
119 2 0.226359 0.79913 0.336271
120 2 0.230054 0.837052 0.299215
121 1 0.991935 0.729155 0.579353
122 2 -0.000365456 0.718635 0.597839
123 2 0.994912 0.754303 0.559854
124 1 0.110881 0.385109 0.380782
125 2 0.104983 0.359402 0.388768
126 2 0.105479 0.408454 0.365231
127 1 0.786616 0.715379 0.842879
128 2 0.78766 0.740123 0.864941
129 2 0.787289 0.686075 0.858606
130 1 0.511625 0.530627 0.0772747
131 2 0.521554 0.534347 0.0786177
132 2 0.508356 0.538993 0.0469042
133 1 0.161207 0.461341 0.821838
134 2 0.166964 0.478023 0.843393
135 2 0.16629 0.456121 0.793611
136 1 0.302659 0.434124 0.594877
137 2 0.308139 0.455787 0.577325
138 2 0.307506 0.405039 0.5969
139 1 0.378849 0.925066 0.947471
140 2 0.375625 0.935264 0.917612
141 2 0.371504 0.90872 0.963106
142 1 0.239159 0.720612 0.23074
143 2 0.242727 0.691442 0.219843
144 2 0.229165 0.720116 0.229699
145 1 0.325683 0.348733 0.601869
146 2 0.332838 0.359518 0.622505
147 2 0.318458 0.333903 0.61951
148 1 0.380449 0.0376043 0.369057
149 2 0.385863 0.0124356 0.381382
150 2 0.370761 0.0293535 0.369448
151 1 0.871889 0.0999009 0.335513
152 2 0.868789 0.126524 0.31832
153 2 0.864704 0.0903375 0.356635
154 1 0.438179 0.70371 0.275675
155 2 0.43213 0.693588 0.251139
156 2 0.433051 0.722911 0.296895
157 1 0.705035 0.859155 0.233967
158 2 0.702632 0.859785 0.266318
159 2 0.700139 0.834262 0.218964
160 1 0.73592 0.36202 0.537919
161 2 0.743753 0.345049 0.549809
162 2 0.739133 0.389744 0.522826
163 1 0.593111 0.448031 0.183115
164 2 0.58471 0.439467 0.167197
165 2 0.591468 0.475443 0.201272
166 1 0.478086 0.14266 0.58818
167 2 0.473281 0.144228 0.558991
168 2 0.471444 0.138931 0.612818
169 1 0.0479516 0.650826 0.595297
170 2 0.0501406 0.660633 0.564286
171 2 0.04839 0.617572 0.597067
172 1 0.106509 0.452795 0.306145
173 2 0.112893 0.441263 0.283226
174 2 0.11158 0.469113 0.32979
175 1 0.639236 0.313922 0.653593
176 2 0.647152 0.309652 0.63368
177 2 0.638535 0.346037 0.66221
178 1 0.451905 0.772958 0.174706
179 2 0.445325 0.786424 0.19589
180 2 0.460037 0.763217 0.191481
181 1 0.300202 0.0860258 0.911447
182 2 0.297787 0.116971 0.902031
183 2 0.291955 0.0671974 0.912406
184 1 0.808727 0.368647 0.551666
185 2 0.815123 0.364653 0.576976
186 2 0.799513 0.373511 0.563673
187 1 0.835195 0.4513 0.504808
188 2 0.82705 0.435927 0.516543
189 2 0.836047 0.481282 0.519096
190 1 0.268679 0.0835114 0.746182
191 2 0.275729 0.0600622 0.743182
192 2 0.269964 0.10662 0.722543
193 1 0.876188 0.724501 0.389464
194 2 0.874594 0.70571 0.416478
195 2 0.875961 0.705285 0.362238
196 1 0.34299 0.587147 0.879184
197 2 0.336661 0.610335 0.867855
198 2 0.34412 0.59069 0.912114
199 1 0.175371 0.444353 0.744898
200 2 0.177739 0.474815 0.733904
201 2 0.183712 0.426366 0.748712
202 1 0.135385 0.372442 0.788556
203 2 0.144782 0.382656 0.783501
204 2 0.130979 0.366692 0.75919
205 1 0.568371 0.430609 0.152433
206 2 0.568624 0.400097 0.139039
207 2 0.558874 0.440705 0.155096
208 1 0.725249 0.0492182 0.334394
209 2 0.720522 0.0727859 0.316861
210 2 0.734974 0.0494031 0.326634
211 1 0.565441 0.679984 0.668144
212 2 0.569399 0.661604 0.643665
213 2 0.55549 0.680607 0.664927
214 1 0.204587 0.751642 0.342789
215 2 0.200805 0.767149 0.369468
216 2 0.205107 0.77304 0.31729
217 1 0.34871 0.518429 0.812007
218 2 0.348555 0.538034 0.785054
219 2 0.348564 0.537299 0.839481
220 1 0.813288 0.706282 0.700604
221 2 0.820903 0.725747 0.70998
222 2 0.814228 0.698734 0.668288
223 1 0.125958 0.388568 0.253012
224 2 0.129972 0.384624 0.283287
225 2 0.131737 0.373571 0.230314
226 1 0.243034 0.75342 0.324119
227 2 0.237327 0.751996 0.296783
228 2 0.250968 0.733492 0.320302
229 1 0.824348 0.810444 0.663348
230 2 0.817706 0.817142 0.687347
231 2 0.832184 0.830944 0.666292
232 1 0.526593 0.761718 0.708943
233 2 0.531657 0.780061 0.686814
234 2 0.518092 0.777317 0.716995
235 1 0.224804 0.69915 0.359231
236 2 0.216121 0.713278 0.350631
237 2 0.232372 0.717113 0.346905
238 1 0.0994201 0.548964 0.267414
239 2 0.107137 0.556837 0.247731
240 2 0.101314 0.520161 0.282959
241 1 0.964241 0.720946 0.593817
242 2 0.962261 0.717757 0.5613
243 2 0.974116 0.719042 0.598711
244 1 0.364625 0.188452 0.869605
245 2 0.357262 0.17068 0.855717
246 2 0.371451 0.167789 0.882507
247 1 0.401127 0.853627 0.934676
248 2 0.401767 0.886703 0.938223
249 2 0.391643 0.844002 0.939042
250 1 0.844623 0.375021 0.466575
251 2 0.852237 0.388735 0.449875
252 2 0.840493 0.397854 0.486583
253 1 0.215395 0.27181 0.542346
254 2 0.214855 0.244579 0.561487
255 2 0.207014 0.274625 0.524378
256 1 0.580326 0.63994 0.596771
257 2 0.584267 0.609627 0.592344
258 2 0.587514 0.661192 0.606011
259 1 0.505483 0.118611 0.579053
260 2 0.511936 0.143988 0.581148
261 2 0.49624 0.129604 0.585466
262 1 0.976521 0.200985 0.554279
263 2 0.982024 0.178968 0.571305
264 2 0.974523 0.188819 0.523969
265 1 0.701904 0.0119999 0.634655
266 2 0.694898 0.0348959 0.62821
267 2 0.706466 0.00334806 0.606282
268 1 0.628051 0.27773 0.330166
269 2 0.62371 0.30724 0.324607
270 2 0.635625 0.273536 0.308808
271 1 0.811129 0.606989 0.837421
272 2 0.818903 0.588438 0.827647
273 2 0.810767 0.634871 0.819193
274 1 0.902586 0.544209 0.401087
275 2 0.911501 0.548856 0.386722
276 2 0.899753 0.512493 0.397079
277 1 0.839709 0.512279 0.571584
278 2 0.831471 0.512147 0.590476
279 2 0.844623 0.540975 0.57599
280 1 0.445845 0.768524 0.346438
281 2 0.453743 0.753994 0.332057
282 2 0.4484 0.779431 0.376763
283 1 0.372741 0.27326 0.533497
284 2 0.372327 0.290782 0.505174
285 2 0.370561 0.241347 0.527183
286 1 0.0543856 0.561019 0.57986
287 2 0.0641109 0.558643 0.587246
288 2 0.0498287 0.532253 0.587133
289 1 0.257226 0.646076 0.159829
290 2 0.264432 0.631826 0.141637
291 2 0.248437 0.642441 0.144349
292 1 0.0756847 0.617891 0.249242
293 2 0.0723249 0.635374 0.275319
294 2 0.0820256 0.594405 0.259863
295 1 0.134837 0.436215 0.853053
296 2 0.142324 0.456027 0.843267
297 2 0.133866 0.410968 0.831531
298 1 0.244855 0.633502 0.326668
299 2 0.237066 0.64613 0.343329
300 2 0.251358 0.620264 0.348254
ITEM: TIMESTEP
1400
ITEM: NUMBER OF ATOMS
300
ITEM: BOX BOUNDS pp ff pp
0.0000000000000000e+00 1.0000000000000000e+02
0.0000000000000000e+00 3.0000000000000000e+01
0.0000000000000000e+00 3.0000000000000000e+01
ITEM: ATOMS id type xs ys zs
1 1 0.371765 0.96658 0.859064
2 2 0.377982 0.949216 0.839567
3 2 0.363957 0.977057 0.841066
4 1 0.607622 0.501052 0.14199
5 2 0.604145 0.507404 0.111387
6 2 0.600312 0.487983 0.160606
7 1 0.0465826 0.877548 0.480838
8 2 0.0556348 0.869626 0.469096
9 2 0.0418236 0.849809 0.490327
10 1 0.637998 0.196234 0.658056
11 2 0.638994 0.206772 0.689505
12 2 0.633969 0.165726 0.657921
13 1 0.861542 0.322882 0.41757
14 2 0.863977 0.291535 0.425484
15 2 0.860506 0.340838 0.445441
16 1 0.216179 0.384273 0.664959
17 2 0.214478 0.388743 0.632417
18 2 0.225707 0.391698 0.671827
19 1 0.439735 0.432633 0.666657
20 2 0.43064 0.428166 0.679775
21 2 0.445481 0.406281 0.673716
22 1 0.135947 0.368301 0.323788
23 2 0.12605 0.366787 0.328318
24 2 0.140318 0.342861 0.339649
25 1 0.457593 0.681239 0.252977
26 2 0.462939 0.664206 0.275414
27 2 0.448309 0.668916 0.251694
28 1 0.539685 0.410929 0.186706
29 2 0.533299 0.398839 0.20933
30 2 0.534673 0.429185 0.164374
31 1 0.608028 0.387366 0.184869
32 2 0.615609 0.40799 0.177999
33 2 0.606209 0.387757 0.217644
34 1 0.0926943 0.845691 0.120991
35 2 0.089403 0.816307 0.132274
36 2 0.0983912 0.860142 0.144265
37 1 0.311097 0.305969 0.729942
38 2 0.317501 0.330918 0.735672
39 2 0.307012 0.296159 0.758743
40 1 0.393968 0.0916741 0.369246
41 2 0.384561 0.0807721 0.372227
42 2 0.39669 0.090787 0.337183
43 1 0.0743754 0.574865 0.157813
44 2 0.0762393 0.585758 0.188698
45 2 0.0769326 0.598405 0.135805
46 1 0.631199 0.249631 0.728132
47 2 0.631731 0.256223 0.695505
48 2 0.634241 0.276268 0.745415
49 1 0.524951 0.367645 0.264062
50 2 0.517 0.367648 0.284279
51 2 0.532986 0.378213 0.280854
52 1 0.811844 0.654074 0.772586
53 2 0.803484 0.661446 0.789327
54 2 0.813582 0.677638 0.749732
55 1 0.586078 0.888145 0.040383
56 2 0.578567 0.868118 0.0494973
57 2 0.594626 0.877055 0.0536597
58 1 0.243698 0.231427 0.407862
59 2 0.245495 0.199445 0.400623
60 2 0.243342 0.235295 0.440949
61 1 0.37758 0.262502 0.873171
62 2 0.373704 0.235249 0.887364
63 2 0.374405 0.264687 0.841638
64 1 0.375474 0.182381 0.495698
65 2 0.375375 0.161297 0.521514
66 2 0.377859 0.165788 0.467903
67 1 0.211978 0.712279 0.213694
68 2 0.211423 0.716655 0.246687
69 2 0.207693 0.683292 0.205513
70 1 0.873759 0.658021 0.317002
71 2 0.878364 0.662122 0.287699
72 2 0.87387 0.625743 0.325317
73 1 0.017535 0.685835 0.62397
74 2 0.020133 0.659106 0.641905
75 2 0.0254563 0.696706 0.606773
76 1 0.794922 0.926123 0.949832
77 2 0.800312 0.927421 0.977877
78 2 0.789566 0.954106 0.94677
79 1 0.333207 0.170323 0.863734
80 2 0.326029 0.160582 0.842666
81 2 0.329063 0.180328 0.892373
82 1 0.626968 0.442794 0.178249
83 2 0.622515 0.469611 0.165146
84 2 0.636354 0.450476 0.186799
85 1 0.303118 0.297805 0.630324
86 2 0.307123 0.301264 0.660671
87 2 0.298559 0.268215 0.62818
88 1 0.608271 0.743897 0.536699
89 2 0.61798 0.736529 0.539768
90 2 0.607179 0.776886 0.533595
91 1 0.171204 0.789202 0.554891
92 2 0.180405 0.787059 0.567763
93 2 0.165386 0.765702 0.568413
94 1 0.551072 0.815476 0.689493
95 2 0.547637 0.822376 0.720028
96 2 0.559301 0.796686 0.691896
97 1 0.523943 0.45465 0.118844
98 2 0.517311 0.448232 0.142955
99 2 0.52323 0.486651 0.109824
100 1 0.143411 0.153502 0.547067
101 2 0.133473 0.15709 0.546118
102 2 0.146438 0.136349 0.520325
103 1 0.275471 0.355519 0.601119
104 2 0.284743 0.349361 0.611979
105 2 0.274903 0.386967 0.590233
106 1 0.219951 0.337782 0.544002
107 2 0.21794 0.305272 0.540956
108 2 0.224475 0.348657 0.516336
109 1 0.237732 0.257195 0.504466
110 2 0.243184 0.273853 0.526903
111 2 0.230392 0.240729 0.52
112 1 0.167543 0.731868 0.639622
113 2 0.166489 0.702724 0.655414
114 2 0.171631 0.754154 0.66033
115 1 0.567584 0.747384 0.712282
116 2 0.568557 0.71702 0.698918
117 2 0.560537 0.74667 0.735919
118 1 0.223424 0.827684 0.324705
119 2 0.230824 0.807433 0.315087
120 2 0.227163 0.85223 0.343499
121 1 0.994001 0.713018 0.569261
122 2 0.00226181 0.699938 0.582741
123 2 0.994874 0.713237 0.536056
124 1 0.109357 0.375332 0.340272
125 2 0.101008 0.357971 0.334338
126 2 0.107159 0.407802 0.342037
127 1 0.791999 0.687187 0.829088
128 2 0.786895 0.713075 0.81678
129 2 0.796186 0.695843 0.858096
130 1 0.520246 0.537611 0.0817646
131 2 0.518607 0.535912 0.0489259
132 2 0.524529 0.56681 0.0891569
133 1 0.162423 0.448862 0.81096
134 2 0.164417 0.474161 0.831621
135 2 0.170844 0.43926 0.795762
136 1 0.300714 0.406937 0.59138
137 2 0.307705 0.426714 0.604683
138 2 0.304786 0.377541 0.583463
139 1 0.376574 0.929011 0.95376
140 2 0.374467 0.941058 0.923484
141 2 0.373333 0.950341 0.976986
142 1 0.243519 0.727079 0.21596
143 2 0.249278 0.714377 0.191852
144 2 0.233966 0.726802 0.206109
145 1 0.325461 0.350102 0.619789
146 2 0.332651 0.343668 0.642048
147 2 0.319632 0.323243 0.616308
148 1 0.364396 0.0467271 0.368551
149 2 0.364705 0.0176263 0.384774
150 2 0.354923 0.053952 0.360688
151 1 0.86577 0.106751 0.347423
152 2 0.872006 0.102066 0.321787
153 2 0.867361 0.0832531 0.370463
154 1 0.429149 0.680696 0.260732
155 2 0.432902 0.703906 0.240338
156 2 0.422366 0.694625 0.280876
157 1 0.707067 0.869915 0.234556
158 2 0.710724 0.844776 0.216376
159 2 0.709987 0.866448 0.266247
160 1 0.736214 0.364609 0.56254
161 2 0.741106 0.383611 0.584544
162 2 0.742537 0.354601 0.538734
163 1 0.59108 0.455921 0.190307
164 2 0.582126 0.441168 0.191906
165 2 0.597931 0.433748 0.180411
166 1 0.470673 0.115625 0.56696
167 2 0.463887 0.0914728 0.570972
168 2 0.467082 0.138704 0.546099
169 1 0.0425775 0.669647 0.555771
170 2 0.05101 0.654126 0.564721
171 2 0.0382738 0.653055 0.530671
172 1 0.109945 0.477546 0.335705
173 2 0.118064 0.482446 0.316874
174 2 0.109085 0.502408 0.357721
175 1 0.641963 0.299643 0.626082
176 2 0.638068 0.270139 0.617589
177 2 0.644996 0.315644 0.598645
178 1 0.466831 0.753948 0.203981
179 2 0.459368 0.751699 0.181908
180 2 0.466269 0.728527 0.225461
181 1 0.295491 0.0804797 0.885005
182 2 0.286715 0.0749744 0.900008
183 2 0.302197 0.0582028 0.895734
184 1 0.805507 0.395177 0.526838
185 2 0.814586 0.407555 0.520359
186 2 0.802076 0.379141 0.499946
187 1 0.829036 0.425671 0.507557
188 2 0.834529 0.449789 0.493621
189 2 0.828136 0.431479 0.540243
190 1 0.280925 0.0864935 0.730472
191 2 0.273807 0.0853784 0.707084
192 2 0.27673 0.091984 0.760228
193 1 0.868213 0.733122 0.369012
194 2 0.870584 0.763205 0.357026
195 2 0.867307 0.711552 0.343779
196 1 0.349835 0.573411 0.894025
197 2 0.358495 0.580818 0.879092
198 2 0.348797 0.592099 0.921409
199 1 0.188498 0.42384 0.772849
200 2 0.197723 0.436648 0.774148
201 2 0.189007 0.390625 0.775088
202 1 0.1425 0.383726 0.770779
203 2 0.148126 0.409953 0.779234
204 2 0.143658 0.377316 0.738296
205 1 0.566262 0.411468 0.161872
206 2 0.569475 0.381562 0.151767
207 2 0.556689 0.409258 0.171249
208 1 0.731646 0.0444304 0.349025
209 2 0.739427 0.0347009 0.330486
210 2 0.726564 0.0681501 0.332853
211 1 0.566557 0.654594 0.670375
212 2 0.569469 0.655963 0.638516
213 2 0.569714 0.62604 0.683979
214 1 0.204914 0.750089 0.327748
215 2 0.200824 0.75776 0.357183
216 2 0.20965 0.776781 0.315521
217 1 0.342541 0.506419 0.831118
218 2 0.335707 0.511718 0.807367
219 2 0.342024 0.530782 0.853801
220 1 0.815725 0.710132 0.692668
221 2 0.812665 0.734992 0.672943
222 2 0.825715 0.708652 0.692361
223 1 0.132579 0.438615 0.272484
224 2 0.134777 0.412834 0.292304
225 2 0.140386 0.445176 0.252714
226 1 0.243505 0.775096 0.289977
227 2 0.241551 0.759932 0.261016
228 2 0.252813 0.787263 0.289415
229 1 0.820268 0.811908 0.652027
230 2 0.818274 0.840687 0.667477
231 2 0.820396 0.816835 0.619063
232 1 0.532328 0.776795 0.739017
233 2 0.522835 0.787209 0.740217
234 2 0.534473 0.766519 0.708124
235 1 0.229263 0.702807 0.330689
236 2 0.220529 0.713403 0.342988
237 2 0.235091 0.729044 0.323953
238 1 0.0906704 0.529058 0.248414
239 2 0.0912302 0.506471 0.223971
240 2 0.0966651 0.519963 0.273495
241 1 0.968605 0.70006 0.603115
242 2 0.967929 0.705342 0.63595
243 2 0.97772 0.708772 0.592522
244 1 0.361652 0.184111 0.873969
245 2 0.352108 0.185197 0.864079
246 2 0.363583 0.154306 0.887435
247 1 0.400858 0.852884 0.947278
248 2 0.39288 0.872733 0.944119
249 2 0.405166 0.848721 0.917486
250 1 0.852177 0.377449 0.48283
251 2 0.849391 0.394309 0.455617
252 2 0.844393 0.374654 0.503565
253 1 0.212124 0.236071 0.52207
254 2 0.204358 0.220375 0.536019
255 2 0.210885 0.237095 0.48901
256 1 0.578209 0.661927 0.593119
257 2 0.582418 0.63603 0.57751
258 2 0.577855 0.688048 0.572445
259 1 0.50691 0.151627 0.565732
260 2 0.50269 0.135305 0.540301
261 2 0.500841 0.150514 0.592201
262 1 0.977552 0.201958 0.557345
263 2 0.976065 0.178235 0.58023
264 2 0.974338 0.191187 0.527675
265 1 0.694402 0.0256378 0.665048
266 2 0.689383 0.0357026 0.638031
267 2 0.704191 0.0248892 0.658272
268 1 0.617079 0.29315 0.334585
269 2 0.618543 0.303576 0.303302
270 2 0.62534 0.298633 0.352548
271 1 0.808028 0.587737 0.848474
272 2 0.817667 0.58509 0.856945
273 2 0.807123 0.608731 0.822759
274 1 0.90303 0.5507 0.402381
275 2 0.89336 0.545672 0.409223
276 2 0.908651 0.535811 0.425583
277 1 0.836302 0.482731 0.581375
278 2 0.837441 0.47933 0.614316
279 2 0.833683 0.514132 0.574381
280 1 0.434804 0.770226 0.325258
281 2 0.434762 0.784228 0.355508
282 2 0.44279 0.780835 0.308228
283 1 0.368847 0.272386 0.534465
284 2 0.364255 0.285874 0.508105
285 2 0.373569 0.244529 0.525119
286 1 0.0579076 0.569461 0.560089
287 2 0.0656664 0.553103 0.546873
288 2 0.0502711 0.548375 0.564397
289 1 0.254009 0.656402 0.162311
290 2 0.253726 0.647987 0.130071
291 2 0.253128 0.628986 0.181041
292 1 0.0774364 0.605526 0.247645
293 2 0.0709843 0.604737 0.273099
294 2 0.0824786 0.576766 0.246405
295 1 0.142541 0.464852 0.880292
296 2 0.146527 0.450055 0.85354
297 2 0.140154 0.441747 0.902962
298 1 0.239251 0.615353 0.361073
299 2 0.236498 0.64697 0.35585
300 2 0.246893 0.607711 0.340979
ITEM: TIMESTEP
1500
ITEM: NUMBER OF ATOMS
300
ITEM: BOX BOUNDS pp ff pp
0.0000000000000000e+00 1.0000000000000000e+02
0.0000000000000000e+00 3.0000000000000000e+01
0.0000000000000000e+00 3.0000000000000000e+01
ITEM: ATOMS id type xs ys zs
1 1 0.371683 0.978861 0.861877
2 2 0.379292 0.975473 0.840513
3 2 0.363812 0.991922 0.845996
4 1 0.605593 0.507319 0.128772
5 2 0.600986 0.532701 0.113572
6 2 0.59894 0.483381 0.135569
7 1 0.0442447 0.871604 0.478304
8 2 0.0530714 0.884336 0.469175
9 2 0.0379027 0.872914 0.452565
10 1 0.636204 0.188863 0.652235
11 2 0.635837 0.216359 0.671038
12 2 0.62734 0.173463 0.653137
13 1 0.871913 0.332884 0.425794
14 2 0.86415 0.347489 0.440901
15 2 0.869504 0.325998 0.394183
16 1 0.2152 0.393638 0.687546
17 2 0.221615 0.387239 0.662788
18 2 0.206266 0.401444 0.674766
19 1 0.436375 0.415765 0.683652
20 2 0.432492 0.439016 0.703727
21 2 0.429507 0.392297 0.677627
22 1 0.132425 0.373292 0.297631
23 2 0.123774 0.373726 0.314347
24 2 0.132529 0.347311 0.276752
25 1 0.455318 0.668396 0.255338
26 2 0.457674 0.636246 0.251358
27 2 0.445544 0.671155 0.261819
28 1 0.537699 0.41055 0.194604
29 2 0.535451 0.423352 0.224456
30 2 0.532412 0.426229 0.171051
31 1 0.607839 0.409682 0.223901
32 2 0.613117 0.429242 0.203433
33 2 0.614087 0.391289 0.242318
34 1 0.105254 0.81301 0.171595
35 2 0.107253 0.812795 0.204255
36 2 0.101889 0.843125 0.162743
37 1 0.313048 0.304411 0.710818
38 2 0.322724 0.307844 0.703144
39 2 0.309263 0.334069 0.719323
40 1 0.38322 0.0870288 0.379441
41 2 0.373512 0.0807359 0.384376
42 2 0.386142 0.0732538 0.350692
43 1 0.0837244 0.569242 0.148247
44 2 0.0795555 0.583199 0.17514
45 2 0.0816921 0.587755 0.121368
46 1 0.622518 0.275846 0.704928
47 2 0.625952 0.29564 0.680674
48 2 0.621772 0.293263 0.73324
49 1 0.517975 0.412004 0.298082
50 2 0.510838 0.388666 0.298755
51 2 0.515874 0.435658 0.320501
52 1 0.812324 0.627558 0.743495
53 2 0.804994 0.641458 0.76141
54 2 0.814653 0.647499 0.717937
55 1 0.585695 0.89114 0.0282435
56 2 0.594866 0.899689 0.0384132
57 2 0.584072 0.903454 0.997744
58 1 0.25704 0.249302 0.412444
59 2 0.251285 0.261549 0.436797
60 2 0.258118 0.216424 0.416602
61 1 0.375209 0.248594 0.865036
62 2 0.372328 0.219039 0.877095
63 2 0.36807 0.271212 0.87081
64 1 0.382929 0.189779 0.486584
65 2 0.389385 0.165305 0.479579
66 2 0.376521 0.19338 0.461251
67 1 0.212652 0.719324 0.223573
68 2 0.210748 0.746106 0.242376
69 2 0.210937 0.691687 0.241311
70 1 0.873052 0.650282 0.319788
71 2 0.879485 0.659177 0.295869
72 2 0.875653 0.620491 0.331968
73 1 0.0198852 0.692399 0.593156
74 2 0.025384 0.718379 0.603164
75 2 0.0257085 0.670706 0.576915
76 1 0.801464 0.973285 0.931446
77 2 0.798065 0.946057 0.946981
78 2 0.799927 0.999994 0.950704
79 1 0.331294 0.194513 0.888039
80 2 0.322882 0.181579 0.900591
81 2 0.329011 0.216327 0.864011
82 1 0.621578 0.472402 0.185402
83 2 0.615562 0.484893 0.161887
84 2 0.631052 0.480598 0.178575
85 1 0.311804 0.274201 0.600898
86 2 0.311355 0.25842 0.630221
87 2 0.303464 0.26808 0.583557
88 1 0.603601 0.706322 0.542907
89 2 0.60097 0.712248 0.511299
90 2 0.612559 0.691524 0.543563
91 1 0.183532 0.802633 0.52418
92 2 0.182036 0.813781 0.555195
93 2 0.175811 0.783566 0.514953
94 1 0.554249 0.832146 0.719458
95 2 0.562009 0.853003 0.722109
96 2 0.557421 0.802759 0.707808
97 1 0.524686 0.462672 0.128167
98 2 0.524959 0.444562 0.100198
99 2 0.521796 0.493759 0.120967
100 1 0.142785 0.117318 0.509058
101 2 0.152213 0.127868 0.512568
102 2 0.137433 0.126496 0.535677
103 1 0.274296 0.343515 0.610704
104 2 0.268457 0.345487 0.583717
105 2 0.281373 0.367015 0.60913
106 1 0.211645 0.321013 0.549656
107 2 0.210801 0.291249 0.534913
108 2 0.218301 0.339567 0.533086
109 1 0.237483 0.229103 0.498532
110 2 0.239657 0.221946 0.530272
111 2 0.228064 0.240117 0.496514
112 1 0.163795 0.75116 0.622441
113 2 0.159159 0.751433 0.651975
114 2 0.165256 0.719643 0.612742
115 1 0.553915 0.734583 0.699664
116 2 0.556631 0.703385 0.692194
117 2 0.550952 0.735972 0.73147
118 1 0.226775 0.811204 0.331586
119 2 0.23297 0.81779 0.306261
120 2 0.227753 0.834721 0.354983
121 1 0.993535 0.698649 0.569049
122 2 0.00273091 0.685977 0.572365
123 2 0.993874 0.731699 0.573234
124 1 0.107342 0.385568 0.328904
125 2 0.0974475 0.384083 0.333492
126 2 0.110388 0.417218 0.331421
127 1 0.794661 0.668823 0.811942
128 2 0.794588 0.696425 0.830628
129 2 0.800951 0.646585 0.825241
130 1 0.531909 0.540405 0.08252
131 2 0.535721 0.511089 0.0920213
132 2 0.536262 0.550124 0.0541268
133 1 0.170256 0.437152 0.807669
134 2 0.169336 0.454411 0.836021
135 2 0.179925 0.430931 0.801876
136 1 0.299798 0.395259 0.605268
137 2 0.300914 0.422874 0.586973
138 2 0.308795 0.383422 0.613739
139 1 0.377237 0.934007 0.958513
140 2 0.375795 0.944791 0.927341
141 2 0.376972 0.959899 0.979487
142 1 0.244857 0.738331 0.211624
143 2 0.251105 0.725444 0.189012
144 2 0.23547 0.736386 0.200293
145 1 0.323631 0.352031 0.612687
146 2 0.333151 0.347854 0.60338
147 2 0.318567 0.323734 0.607632
148 1 0.347784 0.0570424 0.371089
149 2 0.345138 0.0262452 0.380299
150 2 0.340092 0.0718285 0.35576
151 1 0.859989 0.120343 0.365146
152 2 0.853055 0.128501 0.387737
153 2 0.867481 0.14239 0.366342
154 1 0.426547 0.67537 0.26494
155 2 0.420881 0.699605 0.277869
156 2 0.422681 0.665598 0.235793
157 1 0.710579 0.877669 0.23701
158 2 0.700804 0.878671 0.243962
159 2 0.712116 0.889074 0.20611
160 1 0.736559 0.366148 0.587633
161 2 0.740242 0.396984 0.584545
162 2 0.740674 0.346367 0.564576
163 1 0.588258 0.445289 0.158677
164 2 0.579828 0.427719 0.15508
165 2 0.592651 0.437056 0.187468
166 1 0.47327 0.120989 0.566478
167 2 0.482783 0.12085 0.556207
168 2 0.468072 0.0982361 0.549354
169 1 0.0389129 0.646706 0.533441
170 2 0.0464516 0.624856 0.53493
171 2 0.0359635 0.650191 0.501783
172 1 0.118001 0.467401 0.344487
173 2 0.123959 0.46415 0.317913
174 2 0.123587 0.470924 0.371908
175 1 0.636056 0.303948 0.632048
176 2 0.638902 0.272189 0.635583
177 2 0.635114 0.311063 0.599635
178 1 0.475037 0.729061 0.254022
179 2 0.476811 0.7438 0.28333
180 2 0.466376 0.71247 0.255553
181 1 0.29106 0.0732662 0.858274
182 2 0.29115 0.0399413 0.857587
183 2 0.289301 0.0849591 0.827615
184 1 0.799373 0.408052 0.505328
185 2 0.793987 0.382327 0.494059
186 2 0.803597 0.423892 0.479599
187 1 0.828945 0.425836 0.51277
188 2 0.820392 0.417046 0.527639
189 2 0.833086 0.451246 0.52935
190 1 0.287132 0.0797337 0.724528
191 2 0.284446 0.055958 0.702949
192 2 0.296186 0.0913244 0.716397
193 1 0.86063 0.722707 0.34877
194 2 0.85302 0.714898 0.368934
195 2 0.864169 0.694984 0.334509
196 1 0.353799 0.569237 0.902775
197 2 0.354361 0.601073 0.912474
198 2 0.363022 0.557142 0.898352
199 1 0.198667 0.415379 0.80454
200 2 0.206674 0.410344 0.823863
201 2 0.200534 0.404033 0.773821
202 1 0.145452 0.40758 0.782201
203 2 0.15448 0.415569 0.794106
204 2 0.146023 0.378699 0.765666
205 1 0.565539 0.39917 0.176359
206 2 0.566219 0.371633 0.195005
207 2 0.556023 0.409367 0.175413
208 1 0.73455 0.036909 0.38288
209 2 0.732581 0.068146 0.373275
210 2 0.741412 0.0236235 0.362598
211 1 0.571297 0.654713 0.661585
212 2 0.572995 0.671213 0.63318
213 2 0.575181 0.624075 0.659405
214 1 0.20559 0.744695 0.324172
215 2 0.210156 0.715497 0.32936
216 2 0.210686 0.768953 0.339472
217 1 0.33338 0.526775 0.851514
218 2 0.326567 0.52576 0.875893
219 2 0.342196 0.536225 0.864092
220 1 0.822072 0.70565 0.70296
221 2 0.817831 0.731484 0.687343
222 2 0.832002 0.709586 0.703222
223 1 0.14618 0.443919 0.314034
224 2 0.141115 0.416323 0.306007
225 2 0.155533 0.441628 0.302468
226 1 0.24535 0.807343 0.264629
227 2 0.242725 0.783791 0.242724
228 2 0.254762 0.816921 0.258704
229 1 0.814392 0.776186 0.647809
230 2 0.813271 0.806427 0.661322
231 2 0.821178 0.777655 0.623368
232 1 0.536576 0.784882 0.774505
233 2 0.528835 0.802396 0.786273
234 2 0.541482 0.803055 0.751845
235 1 0.236178 0.687396 0.31702
236 2 0.242673 0.700882 0.29556
237 2 0.236496 0.704102 0.345845
238 1 0.0821919 0.506274 0.240046
239 2 0.0849807 0.516325 0.209654
240 2 0.0877887 0.480259 0.249335
241 1 0.96684 0.701474 0.609895
242 2 0.959989 0.679356 0.599873
243 2 0.975978 0.690098 0.602555
244 1 0.35741 0.181369 0.905879
245 2 0.348637 0.191924 0.893856
246 2 0.356264 0.151167 0.919456
247 1 0.397811 0.859334 0.948445
248 2 0.391649 0.885285 0.95241
249 2 0.393287 0.831523 0.95894
250 1 0.85455 0.379398 0.489418
251 2 0.858992 0.397322 0.513307
252 2 0.845507 0.392121 0.483051
253 1 0.209411 0.240068 0.491796
254 2 0.208616 0.209266 0.504259
255 2 0.201138 0.247507 0.474607
256 1 0.582104 0.696896 0.592882
257 2 0.590123 0.702981 0.573921
258 2 0.574065 0.711304 0.579261
259 1 0.500708 0.160865 0.547362
260 2 0.494885 0.180095 0.566455
261 2 0.510258 0.164668 0.556496
262 1 0.978422 0.201699 0.560736
263 2 0.971607 0.191237 0.582774
264 2 0.974758 0.198609 0.529875
265 1 0.697581 0.0226617 0.667258
266 2 0.705373 0.0121408 0.685311
267 2 0.696143 0.00195989 0.641576
268 1 0.616091 0.300805 0.342482
269 2 0.612651 0.299788 0.3112
270 2 0.625562 0.290121 0.343096
271 1 0.810657 0.58023 0.838396
272 2 0.806245 0.550319 0.838647
273 2 0.81971 0.577657 0.824471
274 1 0.90031 0.561541 0.4078
275 2 0.898502 0.552763 0.376213
276 2 0.906192 0.588495 0.408294
277 1 0.835838 0.486307 0.583749
278 2 0.838632 0.469169 0.61078
279 2 0.831291 0.514475 0.593129
280 1 0.422877 0.7626 0.295314
281 2 0.422885 0.772766 0.263569
282 2 0.43217 0.764195 0.307517
283 1 0.363753 0.248726 0.525073
284 2 0.364622 0.251206 0.558188
285 2 0.372602 0.240466 0.511928
286 1 0.0638907 0.584528 0.535052
287 2 0.0644806 0.55736 0.554266
288 2 0.0728472 0.59928 0.533582
289 1 0.251743 0.664767 0.159962
290 2 0.243209 0.655606 0.174723
291 2 0.252757 0.64831 0.131172
292 1 0.0695121 0.599579 0.220165
293 2 0.0686136 0.619778 0.246512
294 2 0.0694574 0.567859 0.230406
295 1 0.154963 0.463093 0.873489
296 2 0.150731 0.441713 0.852159
297 2 0.150945 0.493341 0.869392
298 1 0.227871 0.626116 0.389166
299 2 0.227225 0.648204 0.364295
300 2 0.220726 0.603063 0.385645
ITEM: TIMESTEP
1600
ITEM: NUMBER OF ATOMS
300
ITEM: BOX BOUNDS pp ff pp
0.0000000000000000e+00 1.0000000000000000e+02
0.0000000000000000e+00 3.0000000000000000e+01
0.0000000000000000e+00 3.0000000000000000e+01
ITEM: ATOMS id type xs ys zs
1 1 0.371449 0.974969 0.867171
2 2 0.378624 0.955965 0.853828
3 2 0.363466 0.975059 0.847099
4 1 0.599702 0.493466 0.126734
5 2 0.594243 0.516819 0.111415
6 2 0.594024 0.46664 0.132497
7 1 0.0423628 0.862716 0.481254
8 2 0.0434148 0.857332 0.448546
9 2 0.0328854 0.856886 0.490149
10 1 0.633724 0.211481 0.666047
11 2 0.630393 0.211494 0.697477
12 2 0.629472 0.186408 0.649267
13 1 0.880481 0.34469 0.442651
14 2 0.870715 0.343706 0.449755
15 2 0.88566 0.350876 0.470486
16 1 0.21862 0.378106 0.71823
17 2 0.219533 0.344964 0.716373
18 2 0.212449 0.388736 0.694253
19 1 0.437277 0.384587 0.676822
20 2 0.444915 0.370733 0.693288
21 2 0.430592 0.361066 0.668994
22 1 0.133162 0.360668 0.274151
23 2 0.125667 0.378099 0.287681
24 2 0.131412 0.328075 0.277996
25 1 0.453157 0.672378 0.254613
26 2 0.453531 0.66762 0.221645
27 2 0.44368 0.67755 0.263907
28 1 0.538816 0.43353 0.200567
29 2 0.538765 0.452295 0.228116
30 2 0.533724 0.449055 0.176444
31 1 0.600863 0.443844 0.242686
32 2 0.606698 0.467627 0.229757
33 2 0.603966 0.436581 0.27353
34 1 0.118662 0.813504 0.208889
35 2 0.114876 0.792329 0.186449
36 2 0.114571 0.843622 0.204641
37 1 0.312042 0.319964 0.678244
38 2 0.321072 0.329815 0.667854
39 2 0.305461 0.344653 0.673741
40 1 0.369495 0.102074 0.416392
41 2 0.360732 0.0963847 0.401371
42 2 0.37549 0.0757348 0.412161
43 1 0.0894266 0.551727 0.164993
44 2 0.0826345 0.575951 0.161572
45 2 0.0940019 0.546571 0.135805
46 1 0.613654 0.280828 0.69668
47 2 0.622307 0.28472 0.680431
48 2 0.606843 0.301797 0.684194
49 1 0.52945 0.439588 0.306146
50 2 0.53825 0.424243 0.310038
51 2 0.52287 0.427351 0.328061
52 1 0.81176 0.636622 0.746091
53 2 0.804565 0.653235 0.762212
54 2 0.819161 0.657603 0.738197
55 1 0.588386 0.905933 0.0302287
56 2 0.580617 0.916938 0.0481008
57 2 0.588161 0.872634 0.0289265
58 1 0.26258 0.26643 0.432726
59 2 0.254775 0.261622 0.453005
60 2 0.270094 0.246417 0.441849
61 1 0.37252 0.234298 0.867595
62 2 0.366752 0.226169 0.893583
63 2 0.378571 0.208787 0.860288
64 1 0.38489 0.187909 0.472909
65 2 0.391542 0.200462 0.451417
66 2 0.384448 0.154806 0.469285
67 1 0.212009 0.723012 0.221204
68 2 0.20963 0.728485 0.253114
69 2 0.203897 0.71275 0.204635
70 1 0.874372 0.661278 0.308442
71 2 0.881562 0.68441 0.307179
72 2 0.877022 0.637283 0.329827
73 1 0.0214792 0.695035 0.559628
74 2 0.0262707 0.724161 0.556847
75 2 0.0271624 0.67072 0.54694
76 1 0.806571 0.997837 0.903241
77 2 0.803331 0.975077 0.925071
78 2 0.816557 0.999264 0.904229
79 1 0.326639 0.184733 0.922097
80 2 0.321224 0.183598 0.894095
81 2 0.320868 0.195019 0.947303
82 1 0.61614 0.499769 0.198968
83 2 0.613116 0.490285 0.168642
84 2 0.622884 0.524209 0.196066
85 1 0.308821 0.272722 0.586213
86 2 0.310964 0.275149 0.618681
87 2 0.305395 0.242111 0.579608
88 1 0.601737 0.680989 0.540015
89 2 0.609226 0.67376 0.560887
90 2 0.601619 0.65887 0.51508
91 1 0.189853 0.809503 0.534817
92 2 0.183612 0.803854 0.560243
93 2 0.18825 0.786942 0.510868
94 1 0.55392 0.809021 0.731797
95 2 0.548763 0.790127 0.710382
96 2 0.562774 0.816897 0.71845
97 1 0.523926 0.467568 0.125764
98 2 0.5141 0.47188 0.130228
99 2 0.527644 0.493422 0.108761
100 1 0.141814 0.0946525 0.475287
101 2 0.143328 0.0618462 0.472223
102 2 0.149856 0.111097 0.464239
103 1 0.272385 0.322142 0.607079
104 2 0.270276 0.291275 0.617514
105 2 0.279827 0.334704 0.625464
106 1 0.217927 0.319019 0.562766
107 2 0.216756 0.30515 0.532708
108 2 0.22768 0.321831 0.569568
109 1 0.238466 0.220385 0.485896
110 2 0.237476 0.190222 0.472097
111 2 0.229646 0.236087 0.485441
112 1 0.162096 0.779289 0.592649
113 2 0.157551 0.800102 0.613825
114 2 0.155224 0.763558 0.574236
115 1 0.545838 0.732077 0.66633
116 2 0.553657 0.711535 0.669463
117 2 0.537637 0.717253 0.678335
118 1 0.237688 0.785698 0.3254
119 2 0.24381 0.790083 0.299412
120 2 0.234741 0.815385 0.336945
121 1 0.991816 0.700156 0.570849
122 2 0.00171277 0.695449 0.571605
123 2 0.989294 0.715344 0.542393
124 1 0.113962 0.396199 0.324094
125 2 0.105114 0.386246 0.336018
126 2 0.114959 0.429048 0.328675
127 1 0.792871 0.658789 0.810899
128 2 0.795802 0.67923 0.835349
129 2 0.791999 0.627797 0.822823
130 1 0.543203 0.52489 0.0804083
131 2 0.549504 0.550612 0.0775254
132 2 0.547175 0.498037 0.0657563
133 1 0.181323 0.424818 0.794166
134 2 0.179843 0.435904 0.825212
135 2 0.190113 0.409012 0.792537
136 1 0.296525 0.379855 0.622742
137 2 0.288821 0.382387 0.601643
138 2 0.304695 0.370384 0.606013
139 1 0.377574 0.951263 0.959277
140 2 0.374999 0.953274 0.927131
141 2 0.375396 0.979996 0.974534
142 1 0.242756 0.74047 0.21529
143 2 0.242733 0.721445 0.18792
144 2 0.233893 0.738102 0.230548
145 1 0.321396 0.352802 0.585833
146 2 0.321866 0.370305 0.557509
147 2 0.318678 0.321452 0.579033
148 1 0.342326 0.0720839 0.37143
149 2 0.337995 0.042099 0.369512
150 2 0.335281 0.0955441 0.374476
151 1 0.854034 0.151415 0.391194
152 2 0.864017 0.153287 0.391758
153 2 0.850165 0.182032 0.393907
154 1 0.427863 0.67367 0.276184
155 2 0.42439 0.698048 0.256619
156 2 0.42033 0.65357 0.284928
157 1 0.712595 0.885545 0.235535
158 2 0.720727 0.904914 0.236607
159 2 0.704506 0.903757 0.242781
160 1 0.734217 0.364287 0.610187
161 2 0.735427 0.378879 0.639884
162 2 0.725567 0.347566 0.609847
163 1 0.585903 0.422547 0.162182
164 2 0.576509 0.411231 0.16378
165 2 0.589703 0.424567 0.192948
166 1 0.472284 0.129352 0.556752
167 2 0.480881 0.143078 0.546681
168 2 0.465193 0.15281 0.558242
169 1 0.0367357 0.630736 0.528663
170 2 0.0449303 0.616833 0.51556
171 2 0.028899 0.610601 0.523836
172 1 0.124926 0.474671 0.359162
173 2 0.132622 0.453389 0.359492
174 2 0.128375 0.505901 0.357252
175 1 0.638287 0.293655 0.620159
176 2 0.639402 0.263417 0.633686
177 2 0.646942 0.310254 0.621958
178 1 0.473474 0.706362 0.315646
179 2 0.471292 0.697495 0.346944
180 2 0.46766 0.689382 0.294499
181 1 0.286579 0.0779445 0.832915
182 2 0.295401 0.0701159 0.846519
183 2 0.285832 0.0637069 0.802878
184 1 0.8047 0.421642 0.464337
185 2 0.81115 0.447014 0.466612
186 2 0.796246 0.429489 0.480321
187 1 0.829033 0.388007 0.512214
188 2 0.819806 0.39046 0.499599
189 2 0.831255 0.415877 0.528932
190 1 0.286232 0.051709 0.720159
191 2 0.291741 0.028845 0.704314
192 2 0.289461 0.0821899 0.712024
193 1 0.852882 0.689387 0.354009
194 2 0.845898 0.698879 0.33212
195 2 0.860816 0.677432 0.337617
196 1 0.352251 0.560444 0.902923
197 2 0.351958 0.533285 0.922224
198 2 0.361457 0.564092 0.890423
199 1 0.207131 0.411309 0.798527
200 2 0.211518 0.411923 0.768578
201 2 0.21377 0.42004 0.821877
202 1 0.152305 0.428049 0.783848
203 2 0.16182 0.418801 0.788272
204 2 0.150949 0.43745 0.752189
205 1 0.562054 0.387862 0.177217
206 2 0.559417 0.355709 0.177511
207 2 0.554311 0.406525 0.187046
208 1 0.737535 0.0308394 0.410437
209 2 0.744892 0.013606 0.425025
210 2 0.734962 0.0565496 0.429841
211 1 0.570862 0.678266 0.664723
212 2 0.578551 0.685994 0.644858
213 2 0.567703 0.647413 0.657777
214 1 0.211108 0.731116 0.321263
215 2 0.216342 0.712243 0.342488
216 2 0.217396 0.74865 0.302175
217 1 0.326502 0.552398 0.875319
218 2 0.327065 0.522343 0.861026
219 2 0.335682 0.562685 0.883617
220 1 0.830288 0.699638 0.707611
221 2 0.822807 0.718569 0.696168
222 2 0.838818 0.708466 0.69262
223 1 0.146223 0.416236 0.343438
224 2 0.143723 0.390272 0.324266
225 2 0.156088 0.421346 0.341542
226 1 0.247613 0.825662 0.244781
227 2 0.248482 0.794329 0.233783
228 2 0.254081 0.845189 0.228501
229 1 0.811762 0.749415 0.668154
230 2 0.804552 0.756089 0.690265
231 2 0.808081 0.752038 0.637273
232 1 0.541314 0.799799 0.815608
233 2 0.549884 0.783508 0.821046
234 2 0.540608 0.807616 0.783289
235 1 0.237137 0.697172 0.336599
236 2 0.239117 0.729699 0.339689
237 2 0.241497 0.685459 0.308983
238 1 0.0735242 0.503204 0.225603
239 2 0.0799674 0.51816 0.204959
240 2 0.0785078 0.490229 0.251426
241 1 0.966791 0.692195 0.612626
242 2 0.964592 0.706356 0.641898
243 2 0.975972 0.701421 0.603174
244 1 0.356591 0.190781 0.932715
245 2 0.346915 0.18437 0.927265
246 2 0.358581 0.187551 0.965222
247 1 0.394274 0.8585 0.943492
248 2 0.396233 0.889379 0.954217
249 2 0.387105 0.844992 0.9624
250 1 0.853488 0.362698 0.476453
251 2 0.84711 0.382404 0.459998
252 2 0.848858 0.349201 0.502736
253 1 0.211432 0.26283 0.488429
254 2 0.203511 0.246531 0.500613
255 2 0.20932 0.274105 0.45786
256 1 0.583967 0.71907 0.598848
257 2 0.590141 0.708636 0.574794
258 2 0.585323 0.751698 0.60396
259 1 0.494801 0.173506 0.536756
260 2 0.500478 0.172387 0.564174
261 2 0.499717 0.15944 0.511365
262 1 0.978896 0.200991 0.564033
263 2 0.970848 0.20832 0.582412
264 2 0.977018 0.207836 0.532016
265 1 0.697729 0.0394664 0.665242
266 2 0.70015 0.0416839 0.697509
267 2 0.701395 0.0111219 0.652657
268 1 0.61581 0.309903 0.342095
269 2 0.606892 0.300143 0.353586
270 2 0.617056 0.298603 0.311011
271 1 0.813121 0.579398 0.820443
272 2 0.822877 0.585336 0.824711
273 2 0.810115 0.592662 0.79155
274 1 0.890699 0.57434 0.407275
275 2 0.884123 0.562047 0.429171
276 2 0.899986 0.569647 0.418715
277 1 0.832798 0.474046 0.556878
278 2 0.828261 0.490717 0.581464
279 2 0.842317 0.483995 0.554586
280 1 0.412502 0.753752 0.262767
281 2 0.402597 0.75719 0.265783
282 2 0.417091 0.777964 0.279823
283 1 0.361347 0.239472 0.513124
284 2 0.36489 0.270429 0.509475
285 2 0.368473 0.217503 0.505107
286 1 0.0681752 0.591515 0.509231
287 2 0.0727755 0.616908 0.524435
288 2 0.0749938 0.569579 0.498585
289 1 0.250123 0.675666 0.159709
290 2 0.257892 0.679539 0.180334
291 2 0.252874 0.656839 0.133774
292 1 0.0634429 0.579863 0.176249
293 2 0.0558194 0.596396 0.190106
294 2 0.0649116 0.551252 0.192636
295 1 0.164293 0.453756 0.87351
296 2 0.158304 0.460483 0.847676
297 2 0.159138 0.456789 0.901912
298 1 0.219957 0.636282 0.38209
299 2 0.217368 0.666819 0.392293
300 2 0.227237 0.638608 0.359355
ITEM: TIMESTEP
1700
ITEM: NUMBER OF ATOMS
300
ITEM: BOX BOUNDS pp ff pp
0.0000000000000000e+00 1.0000000000000000e+02
0.0000000000000000e+00 3.0000000000000000e+01
0.0000000000000000e+00 3.0000000000000000e+01
ITEM: ATOMS id type xs ys zs
1 1 0.372097 0.956989 0.870259
2 2 0.365947 0.930744 0.87167
3 2 0.372639 0.968001 0.83885
4 1 0.601358 0.471861 0.134682
5 2 0.606298 0.449387 0.116382
6 2 0.593791 0.456934 0.150555
7 1 0.0441967 0.858002 0.473095
8 2 0.0466492 0.864385 0.504773
9 2 0.0355627 0.841208 0.472214
10 1 0.636321 0.216171 0.684473
11 2 0.626916 0.205103 0.682063
12 2 0.636252 0.248844 0.691071
13 1 0.881111 0.355642 0.468804
14 2 0.871525 0.363836 0.464024
15 2 0.886642 0.367767 0.443819
16 1 0.218258 0.348256 0.706587
17 2 0.221596 0.346702 0.675205
18 2 0.209769 0.330832 0.709218
19 1 0.436327 0.351971 0.672766
20 2 0.433665 0.348927 0.704752
21 2 0.429509 0.337067 0.653464
22 1 0.13481 0.349481 0.295066
23 2 0.125637 0.362632 0.293225
24 2 0.134339 0.316787 0.288765
25 1 0.45418 0.695361 0.271224
26 2 0.457755 0.674349 0.248255
27 2 0.444244 0.692131 0.273117
28 1 0.535058 0.435353 0.193831
29 2 0.536629 0.449788 0.223417
30 2 0.527826 0.451687 0.177609
31 1 0.593585 0.465717 0.25549
32 2 0.599983 0.462032 0.230138
33 2 0.597115 0.488608 0.27667
34 1 0.120427 0.802814 0.232478
35 2 0.116989 0.828995 0.249635
36 2 0.129359 0.793837 0.244478
37 1 0.316154 0.31298 0.674843
38 2 0.322 0.323241 0.699866
39 2 0.310077 0.337801 0.665638
40 1 0.358592 0.0920812 0.434916
41 2 0.351546 0.0915019 0.411268
42 2 0.361186 0.0608577 0.442755
43 1 0.0940948 0.535645 0.192823
44 2 0.0899663 0.548032 0.165105
45 2 0.102466 0.519189 0.184976
46 1 0.610114 0.292153 0.666108
47 2 0.606656 0.322854 0.672086
48 2 0.618328 0.294053 0.647189
49 1 0.54301 0.457393 0.296891
50 2 0.538485 0.453863 0.326406
51 2 0.551908 0.47197 0.301244
52 1 0.819135 0.622202 0.730108
53 2 0.809992 0.623685 0.716685
54 2 0.82438 0.649071 0.72097
55 1 0.589831 0.916396 0.0342642
56 2 0.587225 0.884357 0.0312462
57 2 0.581764 0.935643 0.0300546
58 1 0.258042 0.282039 0.45487
59 2 0.248998 0.2688 0.449658
60 2 0.257718 0.301949 0.481582
61 1 0.365903 0.245402 0.876352
62 2 0.36309 0.233193 0.905917
63 2 0.36333 0.277552 0.874381
64 1 0.382823 0.194809 0.461896
65 2 0.386507 0.172286 0.483181
66 2 0.379206 0.179255 0.434993
67 1 0.213586 0.721903 0.222285
68 2 0.215669 0.738763 0.250189
69 2 0.207269 0.697028 0.229281
70 1 0.873358 0.672264 0.333999
71 2 0.882196 0.682426 0.322168
72 2 0.874822 0.651482 0.3596
73 1 0.0213081 0.688795 0.530151
74 2 0.0193653 0.704325 0.501377
75 2 0.0238033 0.657099 0.524044
76 1 0.812178 0.982836 0.882498
77 2 0.810999 0.952105 0.870197
78 2 0.803372 0.998629 0.882529
79 1 0.324997 0.178643 0.94304
80 2 0.316355 0.174695 0.95934
81 2 0.324093 0.203473 0.921006
82 1 0.614411 0.52595 0.19617
83 2 0.614234 0.509094 0.167418
84 2 0.610839 0.556696 0.191269
85 1 0.303636 0.259823 0.606582
86 2 0.308403 0.269865 0.63411
87 2 0.310335 0.251714 0.583198
88 1 0.601583 0.658592 0.538684
89 2 0.604086 0.665151 0.507085
90 2 0.596571 0.629778 0.540012
91 1 0.191193 0.816144 0.544198
92 2 0.183101 0.81781 0.563712
93 2 0.197341 0.841431 0.551387
94 1 0.546804 0.781081 0.744081
95 2 0.539451 0.782409 0.721528
96 2 0.555133 0.769581 0.729656
97 1 0.523277 0.497717 0.139268
98 2 0.519499 0.527765 0.132222
99 2 0.532687 0.495927 0.128129
100 1 0.151768 0.115124 0.427392
101 2 0.150029 0.0824919 0.430947
102 2 0.155744 0.127181 0.455501
103 1 0.277517 0.295539 0.6161
104 2 0.279288 0.274437 0.641219
105 2 0.283997 0.289719 0.591389
106 1 0.219794 0.302378 0.570478
107 2 0.216987 0.296159 0.539095
108 2 0.229031 0.290604 0.575432
109 1 0.231046 0.230668 0.464429
110 2 0.232155 0.206145 0.486702
111 2 0.222682 0.247665 0.471142
112 1 0.166323 0.829603 0.581119
113 2 0.15923 0.852885 0.577943
114 2 0.163501 0.801953 0.565052
115 1 0.53996 0.738108 0.663436
116 2 0.548719 0.722974 0.657995
117 2 0.532496 0.717762 0.654593
118 1 0.241944 0.790942 0.34155
119 2 0.242294 0.800403 0.309609
120 2 0.234985 0.808733 0.357567
121 1 0.994699 0.6969 0.555132
122 2 0.00464022 0.700418 0.55594
123 2 0.992213 0.675149 0.531271
124 1 0.111892 0.402835 0.301696
125 2 0.102439 0.407721 0.311412
126 2 0.117987 0.422107 0.319776
127 1 0.793775 0.660443 0.811012
128 2 0.793474 0.666216 0.843827
129 2 0.797321 0.62977 0.805484
130 1 0.548727 0.485471 0.0989275
131 2 0.543222 0.458008 0.0944355
132 2 0.555286 0.480321 0.123557
133 1 0.189536 0.410369 0.786443
134 2 0.187428 0.414331 0.818786
135 2 0.198891 0.420547 0.78052
136 1 0.296845 0.361017 0.635892
137 2 0.289862 0.339621 0.625335
138 2 0.29533 0.390787 0.621772
139 1 0.380321 0.949924 0.958944
140 2 0.382294 0.94764 0.926346
141 2 0.37544 0.978373 0.965029
142 1 0.239886 0.744749 0.191933
143 2 0.242761 0.721354 0.213658
144 2 0.23092 0.736791 0.179499
145 1 0.316484 0.373071 0.556089
146 2 0.325249 0.358809 0.548727
147 2 0.310701 0.351204 0.572255
148 1 0.342254 0.0799282 0.370145
149 2 0.342325 0.0758812 0.337059
150 2 0.334707 0.10006 0.378695
151 1 0.85253 0.180419 0.418082
152 2 0.846556 0.200913 0.435244
153 2 0.861035 0.196235 0.41051
154 1 0.426084 0.689466 0.278365
155 2 0.420012 0.679935 0.253654
156 2 0.421092 0.688799 0.30724
157 1 0.71461 0.896627 0.237925
158 2 0.712434 0.904328 0.206315
159 2 0.724469 0.891939 0.240959
160 1 0.731064 0.361582 0.632933
161 2 0.725817 0.388953 0.640421
162 2 0.725349 0.33462 0.63754
163 1 0.583293 0.426876 0.179748
164 2 0.574241 0.413622 0.174736
165 2 0.585246 0.427639 0.212431
166 1 0.469879 0.137512 0.544821
167 2 0.477488 0.154454 0.558268
168 2 0.461253 0.152373 0.552788
169 1 0.0324284 0.611433 0.525415
170 2 0.0412509 0.61217 0.50974
171 2 0.0338088 0.602745 0.557266
172 1 0.12621 0.455809 0.357739
173 2 0.134836 0.443743 0.36952
174 2 0.127324 0.488088 0.350296
175 1 0.632766 0.297134 0.621025
176 2 0.639863 0.278409 0.606852
177 2 0.636814 0.325477 0.632235
178 1 0.462347 0.680933 0.360659
179 2 0.469618 0.697302 0.376649
180 2 0.461496 0.692809 0.329642
181 1 0.284142 0.08533 0.816325
182 2 0.281799 0.0598323 0.796326
183 2 0.28732 0.111034 0.797934
184 1 0.802687 0.419621 0.459676
185 2 0.794395 0.426273 0.442272
186 2 0.800864 0.394849 0.481136
187 1 0.828761 0.399282 0.474539
188 2 0.819944 0.410118 0.463143
189 2 0.829797 0.408087 0.506503
190 1 0.288937 0.0521744 0.72025
191 2 0.285303 0.02131 0.716821
192 2 0.295202 0.0587683 0.695121
193 1 0.847831 0.633765 0.362981
194 2 0.842472 0.628338 0.335366
195 2 0.856512 0.648173 0.354844
196 1 0.351812 0.549286 0.90486
197 2 0.352875 0.518019 0.915855
198 2 0.359439 0.567861 0.915803
199 1 0.216723 0.41477 0.792341
200 2 0.216031 0.386914 0.774179
201 2 0.226176 0.425632 0.792073
202 1 0.163267 0.44414 0.781265
203 2 0.172738 0.434219 0.777262
204 2 0.160017 0.458345 0.753123
205 1 0.559457 0.384017 0.160852
206 2 0.556898 0.352537 0.167736
207 2 0.551625 0.404032 0.16623
208 1 0.740661 0.0257773 0.445454
209 2 0.733222 0.0350545 0.4252
210 2 0.746872 0.00542467 0.429073
211 1 0.565934 0.708461 0.655346
212 2 0.57544 0.718803 0.655764
213 2 0.565664 0.675283 0.658434
214 1 0.218575 0.740891 0.314213
215 2 0.211811 0.720904 0.328465
216 2 0.227311 0.737947 0.330168
217 1 0.325473 0.567004 0.897699
218 2 0.323317 0.563507 0.865338
219 2 0.334845 0.556821 0.903305
220 1 0.833853 0.695937 0.70757
221 2 0.824555 0.706929 0.702117
222 2 0.839763 0.705283 0.682359
223 1 0.15027 0.406551 0.369317
224 2 0.144452 0.390924 0.347163
225 2 0.15614 0.384307 0.384598
226 1 0.243942 0.820331 0.260382
227 2 0.240955 0.794694 0.241549
228 2 0.246159 0.846283 0.24081
229 1 0.809948 0.723672 0.672992
230 2 0.810948 0.740837 0.644613
231 2 0.800363 0.715094 0.677101
232 1 0.551153 0.81242 0.841837
233 2 0.546434 0.841609 0.838415
234 2 0.550561 0.795322 0.813291
235 1 0.248068 0.689534 0.349552
236 2 0.24902 0.71746 0.331631
237 2 0.254901 0.689303 0.37389
238 1 0.0678342 0.519216 0.230079
239 2 0.0768405 0.530842 0.221436
240 2 0.0662351 0.52518 0.262438
241 1 0.973545 0.677292 0.629881
242 2 0.965076 0.693643 0.623038
243 2 0.980823 0.688101 0.609739
244 1 0.354552 0.194366 0.95334
245 2 0.344971 0.185128 0.950946
246 2 0.359669 0.171145 0.970104
247 1 0.385366 0.853189 0.945831
248 2 0.382935 0.885415 0.948455
249 2 0.390998 0.844295 0.971901
250 1 0.853724 0.362447 0.451589
251 2 0.844291 0.373409 0.453084
252 2 0.854361 0.332721 0.466521
253 1 0.207956 0.275381 0.486101
254 2 0.19898 0.267308 0.498373
255 2 0.207382 0.277901 0.452918
256 1 0.590733 0.73434 0.610299
257 2 0.587508 0.751804 0.58402
258 2 0.595109 0.706276 0.599776
259 1 0.492688 0.174706 0.526188
260 2 0.50185 0.178805 0.513471
261 2 0.48689 0.159199 0.503894
262 1 0.980257 0.198754 0.567626
263 2 0.97945 0.215103 0.596549
264 2 0.978955 0.220071 0.542369
265 1 0.698647 0.0481981 0.664766
266 2 0.705148 0.0670537 0.647855
267 2 0.697904 0.0594552 0.696043
268 1 0.617289 0.31475 0.344701
269 2 0.609745 0.336276 0.340773
270 2 0.615423 0.295054 0.370864
271 1 0.812366 0.57908 0.813347
272 2 0.817022 0.59389 0.83886
273 2 0.817296 0.585553 0.785077
274 1 0.880829 0.583606 0.391074
275 2 0.87473 0.578238 0.416938
276 2 0.881381 0.556006 0.372473
277 1 0.832401 0.455489 0.542457
278 2 0.841357 0.462412 0.555576
279 2 0.828302 0.483467 0.530554
280 1 0.404262 0.729971 0.230694
281 2 0.411067 0.753797 0.236065
282 2 0.395172 0.743722 0.228719
283 1 0.355665 0.250429 0.495782
284 2 0.353869 0.27292 0.471919
285 2 0.362404 0.228355 0.484861
286 1 0.0598109 0.607408 0.477581
287 2 0.0573237 0.603214 0.445569
288 2 0.0696185 0.613493 0.479887
289 1 0.254027 0.662685 0.145397
290 2 0.262991 0.673672 0.155272
291 2 0.25423 0.656583 0.112634
292 1 0.0677535 0.545927 0.143305
293 2 0.061212 0.526241 0.127553
294 2 0.0679623 0.538056 0.175689
295 1 0.173153 0.444513 0.864715
296 2 0.171665 0.445009 0.831757
297 2 0.164343 0.44619 0.880398
298 1 0.220384 0.652251 0.348852
299 2 0.218645 0.627884 0.370847
300 2 0.23016 0.653461 0.341943
ITEM: TIMESTEP
1800
ITEM: NUMBER OF ATOMS
300
ITEM: BOX BOUNDS pp ff pp
0.0000000000000000e+00 1.0000000000000000e+02
0.0000000000000000e+00 3.0000000000000000e+01
0.0000000000000000e+00 3.0000000000000000e+01
ITEM: ATOMS id type xs ys zs
1 1 0.372985 0.93357 0.871977
2 2 0.364238 0.939313 0.856876
3 2 0.378322 0.911922 0.853923
4 1 0.607106 0.448066 0.141101
5 2 0.614432 0.426549 0.148305
6 2 0.598247 0.433528 0.146366
7 1 0.0476365 0.848289 0.467731
8 2 0.054429 0.861314 0.447023
9 2 0.0387423 0.86245 0.462106
10 1 0.635104 0.253409 0.689244
11 2 0.633842 0.221796 0.698939
12 2 0.627763 0.261952 0.668283
13 1 0.874495 0.39096 0.478876
14 2 0.865907 0.385073 0.462846
15 2 0.881747 0.396777 0.456675
16 1 0.212696 0.338264 0.69773
17 2 0.211724 0.308292 0.683507
18 2 0.203637 0.351211 0.703364
19 1 0.43586 0.315653 0.682572
20 2 0.43224 0.30981 0.713091
21 2 0.428746 0.309686 0.659919
22 1 0.129867 0.326545 0.308693
23 2 0.121842 0.346419 0.307941
24 2 0.130685 0.310479 0.279614
25 1 0.452083 0.712493 0.307964
26 2 0.453837 0.744831 0.30238
27 2 0.442808 0.704923 0.298061
28 1 0.531839 0.428553 0.207281
29 2 0.535332 0.432152 0.238307
30 2 0.530795 0.458551 0.19317
31 1 0.585279 0.503404 0.266753
32 2 0.592553 0.512518 0.245773
33 2 0.588828 0.503037 0.297915
34 1 0.120208 0.808218 0.264404
35 2 0.123118 0.800295 0.233513
36 2 0.110304 0.812786 0.264856
37 1 0.317124 0.316213 0.672442
38 2 0.324948 0.334911 0.681462
39 2 0.309358 0.335959 0.665295
40 1 0.353212 0.0995678 0.445026
41 2 0.347723 0.09189 0.418242
42 2 0.360835 0.0781533 0.447633
43 1 0.0958872 0.516654 0.212455
44 2 0.0958065 0.51247 0.179387
45 2 0.104633 0.506161 0.224746
46 1 0.610559 0.27979 0.652184
47 2 0.610776 0.305402 0.673505
48 2 0.615299 0.288274 0.624087
49 1 0.555534 0.478157 0.265606
50 2 0.562235 0.482908 0.241322
51 2 0.558703 0.493062 0.293488
52 1 0.827471 0.587497 0.722757
53 2 0.835347 0.577199 0.704985
54 2 0.827932 0.620561 0.726704
55 1 0.589094 0.919915 0.0280401
56 2 0.582104 0.941099 0.0171104
57 2 0.594137 0.90752 0.00206208
58 1 0.257737 0.300453 0.480872
59 2 0.251184 0.275997 0.474874
60 2 0.265616 0.288116 0.497278
61 1 0.3596 0.275826 0.890116
62 2 0.355253 0.256475 0.913064
63 2 0.35409 0.275736 0.8623
64 1 0.365939 0.175185 0.453443
65 2 0.366331 0.170068 0.420531
66 2 0.361436 0.149296 0.468126
67 1 0.21524 0.707535 0.212053
68 2 0.215798 0.722546 0.241758
69 2 0.206249 0.71319 0.198604
70 1 0.862691 0.665119 0.357102
71 2 0.86713 0.694212 0.363867
72 2 0.869232 0.640286 0.361462
73 1 0.016675 0.684481 0.50891
74 2 0.0213039 0.712339 0.499062
75 2 0.0234069 0.660147 0.512838
76 1 0.81624 0.954082 0.862198
77 2 0.812236 0.924182 0.868441
78 2 0.826146 0.95263 0.866519
79 1 0.325652 0.163398 0.944445
80 2 0.317653 0.145483 0.935547
81 2 0.322708 0.193505 0.954855
82 1 0.606842 0.526821 0.202287
83 2 0.606587 0.504694 0.177371
84 2 0.609966 0.556268 0.190646
85 1 0.305432 0.222375 0.643085
86 2 0.307819 0.209105 0.67261
87 2 0.313737 0.23299 0.627853
88 1 0.600581 0.65376 0.54185
89 2 0.591791 0.648894 0.526719
90 2 0.605737 0.677184 0.52551
91 1 0.195245 0.821686 0.538283
92 2 0.18774 0.840449 0.549824
93 2 0.198257 0.80067 0.562128
94 1 0.540161 0.775304 0.773969
95 2 0.54377 0.762124 0.745815
96 2 0.531512 0.790763 0.767567
97 1 0.53168 0.51093 0.161778
98 2 0.525958 0.5357 0.150212
99 2 0.536665 0.496964 0.136482
100 1 0.156311 0.131578 0.367466
101 2 0.160892 0.151758 0.389162
102 2 0.146852 0.141563 0.363301
103 1 0.291527 0.289148 0.599907
104 2 0.281564 0.286522 0.601036
105 2 0.295625 0.265814 0.619402
106 1 0.22205 0.282527 0.588454
107 2 0.216324 0.281627 0.561141
108 2 0.231687 0.28289 0.579554
109 1 0.228898 0.238368 0.466857
110 2 0.227063 0.212038 0.447353
111 2 0.220601 0.246438 0.483623
112 1 0.171439 0.887002 0.570898
113 2 0.168771 0.918295 0.563633
114 2 0.163405 0.867212 0.569419
115 1 0.540323 0.737791 0.676318
116 2 0.549762 0.747259 0.670706
117 2 0.535244 0.737915 0.647604
118 1 0.247332 0.781747 0.373671
119 2 0.242733 0.782891 0.344095
120 2 0.2419 0.798324 0.39622
121 1 0.990727 0.68185 0.551792
122 2 9.97898e-05 0.680492 0.540249
123 2 0.984365 0.673565 0.527448
124 1 0.112656 0.405911 0.283835
125 2 0.104128 0.423318 0.283849
126 2 0.118395 0.415858 0.309255
127 1 0.796719 0.668858 0.800436
128 2 0.799567 0.672958 0.768747
129 2 0.801262 0.64204 0.813189
130 1 0.549328 0.456992 0.106295
131 2 0.558434 0.465562 0.0955095
132 2 0.550055 0.430552 0.126448
133 1 0.194822 0.403702 0.782649
134 2 0.191194 0.414698 0.811699
135 2 0.204634 0.398032 0.785663
136 1 0.299698 0.372841 0.629214
137 2 0.296287 0.343176 0.619125
138 2 0.29277 0.39616 0.623391
139 1 0.383822 0.941212 0.960399
140 2 0.378019 0.952992 0.935943
141 2 0.384577 0.964047 0.984552
142 1 0.239722 0.763697 0.185388
143 2 0.245815 0.737362 0.187646
144 2 0.230314 0.753214 0.181184
145 1 0.317262 0.390468 0.558061
146 2 0.325699 0.374618 0.566367
147 2 0.311526 0.394089 0.585124
148 1 0.343136 0.0888111 0.352401
149 2 0.33817 0.0636008 0.338201
150 2 0.341163 0.117066 0.335983
151 1 0.851716 0.217986 0.445096
152 2 0.861592 0.216854 0.450202
153 2 0.847087 0.199157 0.467868
154 1 0.422588 0.715552 0.26967
155 2 0.415132 0.715481 0.247458
156 2 0.418806 0.713531 0.30046
157 1 0.717872 0.907927 0.235962
158 2 0.715147 0.902363 0.267548
159 2 0.714835 0.882558 0.216857
160 1 0.727371 0.370614 0.647153
161 2 0.736181 0.364713 0.661781
162 2 0.723141 0.397469 0.660976
163 1 0.580376 0.445399 0.179599
164 2 0.572658 0.424229 0.180629
165 2 0.583298 0.452566 0.210661
166 1 0.465354 0.144755 0.537494
167 2 0.473517 0.163748 0.540666
168 2 0.461155 0.140313 0.567417
169 1 0.0339561 0.61032 0.522511
170 2 0.0385371 0.595334 0.496951
171 2 0.0355832 0.592938 0.550432
172 1 0.125041 0.447537 0.356339
173 2 0.134445 0.440064 0.364856
174 2 0.121073 0.467774 0.379288
175 1 0.632773 0.30439 0.607549
176 2 0.641173 0.294163 0.622463
177 2 0.634257 0.306145 0.574632
178 1 0.449888 0.663814 0.388979
179 2 0.456197 0.638784 0.382468
180 2 0.45193 0.689547 0.368913
181 1 0.277711 0.107208 0.80684
182 2 0.287695 0.106131 0.808389
183 2 0.273889 0.0813213 0.823531
184 1 0.800739 0.399225 0.464773
185 2 0.793984 0.415277 0.483387
186 2 0.799122 0.366386 0.466676
187 1 0.82591 0.427637 0.440561
188 2 0.816049 0.423475 0.444213
189 2 0.830124 0.431945 0.470482
190 1 0.298545 0.0367374 0.740402
191 2 0.291346 0.0574172 0.750782
192 2 0.297008 0.0289516 0.708398
193 1 0.846521 0.587858 0.393502
194 2 0.845304 0.618558 0.381167
195 2 0.842408 0.565651 0.372768
196 1 0.350552 0.533158 0.90609
197 2 0.356919 0.555645 0.893639
198 2 0.35486 0.51728 0.931639
199 1 0.2221 0.399544 0.755447
200 2 0.219494 0.375369 0.734203
201 2 0.230605 0.391156 0.770836
202 1 0.175153 0.460238 0.778417
203 2 0.180864 0.435036 0.767764
204 2 0.169338 0.47084 0.753457
205 1 0.557489 0.387713 0.170033
206 2 0.559082 0.366598 0.195273
207 2 0.548018 0.398372 0.17092
208 1 0.742711 0.0324977 0.475442
209 2 0.751255 0.0151816 0.475052
210 2 0.743614 0.0583665 0.496247
211 1 0.565335 0.757868 0.639641
212 2 0.569747 0.727985 0.638263
213 2 0.571526 0.780983 0.62735
214 1 0.216492 0.749115 0.288411
215 2 0.220172 0.723692 0.30614
216 2 0.222264 0.775988 0.292745
217 1 0.323348 0.549732 0.901224
218 2 0.320776 0.521006 0.886651
219 2 0.333314 0.552437 0.901761
220 1 0.829967 0.677309 0.709195
221 2 0.820636 0.681643 0.698021
222 2 0.835279 0.705032 0.703805
223 1 0.149663 0.414871 0.37211
224 2 0.14726 0.385486 0.358566
225 2 0.156885 0.429227 0.354069
226 1 0.242624 0.801796 0.279335
227 2 0.239861 0.79061 0.249316
228 2 0.250876 0.820378 0.276309
229 1 0.809139 0.702192 0.649933
230 2 0.816782 0.71477 0.632505
231 2 0.800778 0.703989 0.631735
232 1 0.558389 0.815427 0.846196
233 2 0.565938 0.827087 0.827702
234 2 0.551654 0.800738 0.826413
235 1 0.251933 0.683062 0.378801
236 2 0.246777 0.711622 0.378589
237 2 0.258237 0.682932 0.404677
238 1 0.0680326 0.533283 0.219285
239 2 0.0777606 0.539286 0.224141
240 2 0.0649199 0.51014 0.240915
241 1 0.981386 0.673685 0.638518
242 2 0.988436 0.690065 0.655563
243 2 0.982886 0.677909 0.605834
244 1 0.349857 0.205532 0.963188
245 2 0.343051 0.182163 0.956094
246 2 0.355994 0.194296 0.986986
247 1 0.373881 0.847453 0.946673
248 2 0.381481 0.854086 0.967295
249 2 0.372343 0.873574 0.92661
250 1 0.849357 0.367685 0.444449
251 2 0.843253 0.390879 0.431832
252 2 0.845749 0.337385 0.43749
253 1 0.206438 0.282764 0.5157
254 2 0.196566 0.278858 0.519303
255 2 0.208266 0.311188 0.499388
256 1 0.590363 0.705445 0.61675
257 2 0.595798 0.731401 0.606301
258 2 0.592675 0.67852 0.598672
259 1 0.488204 0.182366 0.514972
260 2 0.488454 0.202118 0.488134
261 2 0.497546 0.175129 0.524412
262 1 0.981811 0.198035 0.572975
263 2 0.990044 0.199225 0.59186
264 2 0.981769 0.223893 0.551941
265 1 0.696841 0.0482707 0.662133
266 2 0.687465 0.0592651 0.665787
267 2 0.701704 0.0510259 0.691129
268 1 0.61757 0.316949 0.35858
269 2 0.623039 0.342392 0.347116
270 2 0.620328 0.309889 0.389833
271 1 0.813326 0.587261 0.800582
272 2 0.815706 0.560476 0.818769
273 2 0.817553 0.584817 0.770473
274 1 0.880727 0.585237 0.372685
275 2 0.872061 0.585405 0.389321
276 2 0.885206 0.555698 0.376645
277 1 0.836529 0.433724 0.524727
278 2 0.838411 0.447185 0.554569
279 2 0.841747 0.405486 0.521399
280 1 0.401155 0.699876 0.208229
281 2 0.393267 0.682693 0.19707
282 2 0.402698 0.726316 0.188591
283 1 0.355918 0.272619 0.47126
284 2 0.34681 0.266589 0.483628
285 2 0.360717 0.243763 0.466508
286 1 0.0468421 0.607145 0.43602
287 2 0.053593 0.594418 0.414978
288 2 0.0416663 0.631165 0.420641
289 1 0.258899 0.649708 0.122211
290 2 0.260137 0.645843 0.0893604
291 2 0.249594 0.640872 0.130628
292 1 0.0767344 0.497901 0.138984
293 2 0.0734597 0.466501 0.141434
294 2 0.0728665 0.51611 0.163749
295 1 0.178784 0.433333 0.867012
296 2 0.176976 0.442202 0.83545
297 2 0.178392 0.460292 0.886572
298 1 0.232905 0.676582 0.31083
299 2 0.22982 0.647718 0.297706
300 2 0.239941 0.670633 0.333755
ITEM: TIMESTEP
1900
ITEM: NUMBER OF ATOMS
300
ITEM: BOX BOUNDS pp ff pp
0.0000000000000000e+00 1.0000000000000000e+02
0.0000000000000000e+00 3.0000000000000000e+01
0.0000000000000000e+00 3.0000000000000000e+01
ITEM: ATOMS id type xs ys zs
1 1 0.375609 0.915549 0.874444
2 2 0.372216 0.922297 0.843821
3 2 0.374837 0.882831 0.880278
4 1 0.606211 0.442612 0.164903
5 2 0.609221 0.415283 0.181138
6 2 0.596232 0.444538 0.165893
7 1 0.0466623 0.856674 0.467605
8 2 0.0544968 0.876929 0.463262
9 2 0.0471361 0.831645 0.445647
10 1 0.637414 0.279199 0.678775
11 2 0.638691 0.283099 0.711604
12 2 0.628049 0.269197 0.67273
13 1 0.868746 0.423717 0.467891
14 2 0.864715 0.406953 0.442404
15 2 0.875336 0.404227 0.483659
16 1 0.211786 0.320947 0.681117
17 2 0.209975 0.314825 0.648911
18 2 0.203652 0.334331 0.695153
19 1 0.430203 0.27027 0.677069
20 2 0.431828 0.264475 0.709445
21 2 0.427392 0.241982 0.662134
22 1 0.131648 0.328679 0.307129
23 2 0.125811 0.352253 0.29383
24 2 0.127196 0.29899 0.304063
25 1 0.440794 0.719223 0.335385
26 2 0.445731 0.74821 0.335612
27 2 0.433401 0.720613 0.312981
28 1 0.530526 0.42366 0.231094
29 2 0.530244 0.433233 0.26301
30 2 0.532926 0.449718 0.211909
31 1 0.585361 0.517891 0.244977
32 2 0.592763 0.522231 0.222986
33 2 0.587548 0.4922 0.264925
34 1 0.12198 0.815178 0.253945
35 2 0.131514 0.821913 0.261422
36 2 0.121577 0.798612 0.225051
37 1 0.31888 0.307993 0.668943
38 2 0.326375 0.318252 0.688481
39 2 0.317758 0.329299 0.643582
40 1 0.348009 0.0897864 0.44956
41 2 0.345004 0.0858485 0.418013
42 2 0.350826 0.0603192 0.461997
43 1 0.0950895 0.487197 0.232862
44 2 0.0939852 0.488291 0.199751
45 2 0.104544 0.494622 0.240789
46 1 0.610219 0.271144 0.638955
47 2 0.600836 0.276863 0.628947
48 2 0.61657 0.287789 0.619311
49 1 0.556744 0.505369 0.28084
50 2 0.561313 0.510558 0.251648
51 2 0.560692 0.525452 0.303962
52 1 0.83556 0.576234 0.734892
53 2 0.842675 0.566647 0.713518
54 2 0.829902 0.599789 0.720729
55 1 0.589265 0.922589 0.0191485
56 2 0.590748 0.912322 0.987824
57 2 0.579756 0.932234 0.0228077
58 1 0.256421 0.304142 0.529624
59 2 0.247925 0.292602 0.51636
60 2 0.255603 0.336956 0.534813
61 1 0.352362 0.282281 0.911443
62 2 0.351152 0.260396 0.93626
63 2 0.343497 0.295327 0.903221
64 1 0.358517 0.172397 0.45904
65 2 0.355085 0.14456 0.473371
66 2 0.354951 0.174592 0.427976
67 1 0.210969 0.733283 0.202718
68 2 0.213389 0.722252 0.233121
69 2 0.201206 0.740422 0.201762
70 1 0.854299 0.636965 0.377614
71 2 0.854728 0.665699 0.36078
72 2 0.861993 0.617605 0.368748
73 1 0.0109623 0.680592 0.514281
74 2 0.0135502 0.680459 0.546478
75 2 0.0170086 0.660187 0.497294
76 1 0.821538 0.932138 0.852839
77 2 0.819522 0.918789 0.823044
78 2 0.830282 0.948253 0.851477
79 1 0.329733 0.151139 0.963602
80 2 0.322292 0.140212 0.944197
81 2 0.329732 0.134129 0.992268
82 1 0.606805 0.535747 0.184678
83 2 0.609306 0.504476 0.176695
84 2 0.612073 0.557043 0.165991
85 1 0.29537 0.240843 0.656397
86 2 0.299043 0.214653 0.672987
87 2 0.301299 0.267255 0.661178
88 1 0.599155 0.662229 0.558817
89 2 0.608931 0.66296 0.56579
90 2 0.597019 0.634407 0.541895
91 1 0.195191 0.839748 0.493948
92 2 0.195927 0.869707 0.508355
93 2 0.188477 0.821311 0.51039
94 1 0.533565 0.778689 0.783517
95 2 0.538798 0.760907 0.761366
96 2 0.52605 0.794274 0.768
97 1 0.536003 0.483217 0.162851
98 2 0.533059 0.514306 0.155898
99 2 0.544142 0.475859 0.144936
100 1 0.16157 0.160252 0.325341
101 2 0.153261 0.174608 0.337085
102 2 0.162841 0.168764 0.293393
103 1 0.284506 0.300044 0.581378
104 2 0.280162 0.2974 0.551471
105 2 0.286453 0.269604 0.593311
106 1 0.224592 0.26795 0.60039
107 2 0.232252 0.282051 0.584261
108 2 0.225221 0.234793 0.597686
109 1 0.233246 0.254711 0.485098
110 2 0.232883 0.24581 0.452998
111 2 0.224199 0.264952 0.494935
112 1 0.18592 0.91571 0.548892
113 2 0.191968 0.916478 0.575429
114 2 0.176531 0.921924 0.558531
115 1 0.553275 0.754637 0.721516
116 2 0.559316 0.779722 0.712775
117 2 0.556198 0.726702 0.706158
118 1 0.252938 0.770836 0.388062
119 2 0.250393 0.777637 0.356552
120 2 0.246454 0.785467 0.408794
121 1 0.985959 0.665422 0.558863
122 2 0.994463 0.665074 0.541325
123 2 0.980522 0.692009 0.550159
124 1 0.117163 0.405969 0.296239
125 2 0.107395 0.413081 0.29564
126 2 0.121958 0.428635 0.314728
127 1 0.804265 0.67307 0.780839
128 2 0.811679 0.695419 0.779862
129 2 0.807905 0.643495 0.790284
130 1 0.55933 0.471785 0.106048
131 2 0.564518 0.445132 0.116132
132 2 0.559362 0.473147 0.0727423
133 1 0.20303 0.395996 0.759214
134 2 0.200899 0.38858 0.790926
135 2 0.2127 0.389871 0.753325
136 1 0.30445 0.353072 0.602978
137 2 0.298418 0.326505 0.60395
138 2 0.298984 0.380888 0.605286
139 1 0.385174 0.915692 0.964849
140 2 0.384578 0.920055 0.931862
141 2 0.390013 0.941464 0.978514
142 1 0.239467 0.779189 0.204914
143 2 0.2443 0.770111 0.17718
144 2 0.229841 0.770494 0.202475
145 1 0.322467 0.404581 0.560865
146 2 0.326835 0.389327 0.53505
147 2 0.317837 0.381962 0.579872
148 1 0.344023 0.0879019 0.34637
149 2 0.336381 0.0872502 0.324882
150 2 0.349725 0.114595 0.340262
151 1 0.848357 0.270645 0.471796
152 2 0.846881 0.274644 0.504521
153 2 0.851926 0.24005 0.466006
154 1 0.4214 0.746822 0.272382
155 2 0.417789 0.72221 0.253396
156 2 0.414634 0.771278 0.274482
157 1 0.719618 0.916227 0.235506
158 2 0.726908 0.894166 0.229681
159 2 0.716858 0.914433 0.267495
160 1 0.727192 0.381465 0.658159
161 2 0.717989 0.383132 0.645225
162 2 0.728261 0.35271 0.674638
163 1 0.578378 0.444121 0.179071
164 2 0.570219 0.425901 0.185357
165 2 0.576191 0.476476 0.182402
166 1 0.459078 0.144325 0.535385
167 2 0.468125 0.158474 0.534123
168 2 0.4552 0.142963 0.504691
169 1 0.0330408 0.625577 0.492174
170 2 0.034684 0.625403 0.459294
171 2 0.0381986 0.600834 0.506432
172 1 0.129019 0.457251 0.357802
173 2 0.133837 0.428772 0.364292
174 2 0.12964 0.477447 0.384239
175 1 0.633976 0.30147 0.591632
176 2 0.638023 0.301704 0.622112
177 2 0.641106 0.29562 0.569006
178 1 0.43745 0.651475 0.399413
179 2 0.447009 0.642494 0.403282
180 2 0.437009 0.680345 0.382814
181 1 0.278019 0.1018 0.785587
182 2 0.278574 0.0705229 0.796965
183 2 0.272652 0.102354 0.757468
184 1 0.798464 0.390144 0.470012
185 2 0.789618 0.401897 0.459832
186 2 0.799043 0.392247 0.503223
187 1 0.823794 0.410194 0.426232
188 2 0.814789 0.404151 0.439408
189 2 0.822727 0.427466 0.397946
190 1 0.299255 0.0583029 0.742372
191 2 0.301567 0.0673246 0.711222
192 2 0.296391 0.085147 0.759675
193 1 0.840237 0.556671 0.407001
194 2 0.842339 0.589143 0.404251
195 2 0.846583 0.539105 0.388157
196 1 0.351415 0.527277 0.889264
197 2 0.359015 0.548934 0.889834
198 2 0.354915 0.496406 0.893953
199 1 0.228434 0.365912 0.751589
200 2 0.227452 0.344123 0.726577
201 2 0.237059 0.360321 0.767505
202 1 0.183942 0.465539 0.783228
203 2 0.191098 0.453794 0.763125
204 2 0.181956 0.497227 0.775281
205 1 0.552719 0.386956 0.181481
206 2 0.551382 0.354018 0.178969
207 2 0.545454 0.400043 0.200278
208 1 0.746036 0.0412079 0.50838
209 2 0.738021 0.0611165 0.509359
210 2 0.745168 0.0199755 0.482847
211 1 0.567608 0.777777 0.64033
212 2 0.572157 0.752127 0.625391
213 2 0.569283 0.805653 0.622927
214 1 0.21687 0.72382 0.286643
215 2 0.224676 0.706974 0.298898
216 2 0.212447 0.740889 0.311188
217 1 0.322181 0.521373 0.888969
218 2 0.317505 0.540689 0.911219
219 2 0.331944 0.520255 0.896091
220 1 0.818402 0.647539 0.711752
221 2 0.814943 0.656055 0.681658
222 2 0.811195 0.651786 0.734465
223 1 0.144527 0.379682 0.356534
224 2 0.139529 0.364363 0.33206
225 2 0.148659 0.356876 0.376564
226 1 0.246728 0.797584 0.297342
227 2 0.250387 0.784222 0.269345
228 2 0.239328 0.818681 0.289758
229 1 0.810458 0.676375 0.625863
230 2 0.81071 0.706031 0.641058
231 2 0.8088 0.680738 0.593282
232 1 0.560406 0.803554 0.821753
233 2 0.558463 0.79158 0.852179
234 2 0.552359 0.799684 0.802347
235 1 0.256407 0.68211 0.40295
236 2 0.254236 0.714424 0.399131
237 2 0.251824 0.670447 0.430185
238 1 0.0714718 0.534203 0.197978
239 2 0.077578 0.518494 0.219192
240 2 0.0687548 0.563547 0.210939
241 1 0.984942 0.665157 0.64949
242 2 0.993954 0.679473 0.651402
243 2 0.982649 0.659596 0.617525
244 1 0.349164 0.219902 0.983306
245 2 0.344676 0.190828 0.976828
246 2 0.350713 0.222672 0.01612
247 1 0.362081 0.862488 0.941244
248 2 0.355383 0.882325 0.926441
249 2 0.368491 0.881026 0.958878
250 1 0.847929 0.360923 0.418951
251 2 0.838659 0.373392 0.419892
252 2 0.848456 0.334087 0.438645
253 1 0.20569 0.297719 0.530718
254 2 0.20897 0.290748 0.561425
255 2 0.196277 0.286971 0.527392
256 1 0.580727 0.70354 0.611658
257 2 0.585781 0.686338 0.588606
258 2 0.583886 0.694694 0.642021
259 1 0.486428 0.198554 0.508276
260 2 0.486072 0.217652 0.480982
261 2 0.495873 0.189169 0.51391
262 1 0.983813 0.19784 0.579039
263 2 0.99181 0.179546 0.570925
264 2 0.983461 0.224955 0.559686
265 1 0.690404 0.0631645 0.661051
266 2 0.698517 0.0461536 0.651546
267 2 0.685373 0.0455414 0.68384
268 1 0.618277 0.319811 0.388165
269 2 0.612785 0.316193 0.360544
270 2 0.613008 0.309523 0.414561
271 1 0.812399 0.587039 0.792075
272 2 0.805481 0.563021 0.790546
273 2 0.821298 0.574527 0.783431
274 1 0.884139 0.597028 0.363362
275 2 0.888693 0.590003 0.392194
276 2 0.890216 0.589436 0.338001
277 1 0.840844 0.433403 0.525713
278 2 0.850296 0.423805 0.530849
279 2 0.838678 0.430925 0.493265
280 1 0.40757 0.675173 0.205125
281 2 0.399939 0.655532 0.213977
282 2 0.413219 0.659466 0.182546
283 1 0.354698 0.297064 0.459166
284 2 0.362602 0.278368 0.467375
285 2 0.346411 0.278443 0.460303
286 1 0.0320448 0.591305 0.40601
287 2 0.0326304 0.602141 0.374548
288 2 0.0226504 0.581996 0.412633
289 1 0.257124 0.6489 0.121073
290 2 0.257271 0.647473 0.0877734
291 2 0.247998 0.640872 0.132089
292 1 0.0840895 0.464334 0.147265
293 2 0.0781942 0.438479 0.154778
294 2 0.078685 0.49238 0.147367
295 1 0.183861 0.430369 0.860973
296 2 0.18525 0.438991 0.829109
297 2 0.174352 0.436105 0.869542
298 1 0.244214 0.686044 0.295615
299 2 0.245048 0.658217 0.277476
300 2 0.252153 0.688917 0.31568
ITEM: TIMESTEP
2000
ITEM: NUMBER OF ATOMS
300
ITEM: BOX BOUNDS pp ff pp
0.0000000000000000e+00 1.0000000000000000e+02
0.0000000000000000e+00 3.0000000000000000e+01
0.0000000000000000e+00 3.0000000000000000e+01
ITEM: ATOMS id type xs ys zs
1 1 0.378899 0.902774 0.872
2 2 0.381636 0.899529 0.840105
3 2 0.369291 0.9119 0.87352
4 1 0.605482 0.449013 0.164694
5 2 0.611382 0.422302 0.167988
6 2 0.59592 0.439802 0.167886
7 1 0.04503 0.85801 0.469844
8 2 0.0372376 0.856494 0.49068
9 2 0.0498442 0.828794 0.469948
10 1 0.638126 0.308888 0.663742
11 2 0.634263 0.337507 0.652503
12 2 0.631149 0.29219 0.680814
13 1 0.861216 0.44066 0.449597
14 2 0.859461 0.413547 0.431109
15 2 0.866774 0.462205 0.432171
16 1 0.216458 0.304445 0.673694
17 2 0.215759 0.30605 0.640481
18 2 0.207768 0.293881 0.686365
19 1 0.424115 0.221879 0.670838
20 2 0.416667 0.2217 0.648594
21 2 0.421477 0.240357 0.697151
22 1 0.128698 0.347036 0.3028
23 2 0.123408 0.374011 0.294284
24 2 0.126285 0.3217 0.282687
25 1 0.426358 0.725655 0.355308
26 2 0.426223 0.75507 0.370981
27 2 0.423129 0.729578 0.324005
28 1 0.536102 0.421577 0.220965
29 2 0.526721 0.422462 0.23248
30 2 0.536486 0.436414 0.191144
31 1 0.580712 0.537866 0.230688
32 2 0.576794 0.567404 0.222434
33 2 0.589565 0.534167 0.215636
34 1 0.124114 0.797322 0.235904
35 2 0.120408 0.828211 0.233818
36 2 0.131876 0.797099 0.256918
37 1 0.314587 0.29339 0.681249
38 2 0.321328 0.299731 0.70504
39 2 0.315931 0.314483 0.65583
40 1 0.345418 0.0985685 0.4291
41 2 0.346882 0.0911792 0.396964
42 2 0.336886 0.115642 0.432382
43 1 0.0946936 0.46622 0.254149
44 2 0.0930779 0.448561 0.226395
45 2 0.102822 0.454546 0.269663
46 1 0.61349 0.263841 0.626866
47 2 0.620435 0.240915 0.633915
48 2 0.617518 0.287705 0.607857
49 1 0.567045 0.548134 0.304236
50 2 0.571079 0.540634 0.274672
51 2 0.567625 0.521635 0.324365
52 1 0.828963 0.574191 0.754381
53 2 0.838509 0.581714 0.747894
54 2 0.823091 0.587532 0.730928
55 1 0.590131 0.928483 0.0196622
56 2 0.581503 0.939642 0.00703049
57 2 0.597419 0.93246 0.997187
58 1 0.247452 0.297022 0.572276
59 2 0.246577 0.302614 0.539545
60 2 0.249052 0.264546 0.577567
61 1 0.348569 0.284264 0.933473
62 2 0.347296 0.256917 0.952054
63 2 0.33981 0.299966 0.929981
64 1 0.35467 0.190405 0.475685
65 2 0.355732 0.158368 0.467187
66 2 0.352991 0.19265 0.508469
67 1 0.216981 0.758007 0.236074
68 2 0.218107 0.733598 0.258461
69 2 0.207543 0.769004 0.236792
70 1 0.852259 0.580549 0.403332
71 2 0.848906 0.605732 0.422093
72 2 0.861829 0.585971 0.395317
73 1 0.0106427 0.666243 0.512469
74 2 0.0139876 0.680232 0.484343
75 2 0.0119048 0.633215 0.510877
76 1 0.826726 0.904513 0.826161
77 2 0.826589 0.906705 0.792903
78 2 0.819668 0.924377 0.838929
79 1 0.332195 0.139702 0.954169
80 2 0.333645 0.111191 0.93759
81 2 0.331318 0.164823 0.932455
82 1 0.601967 0.534207 0.178702
83 2 0.600452 0.504617 0.164207
84 2 0.610857 0.546255 0.169334
85 1 0.288918 0.249074 0.683199
86 2 0.292589 0.226402 0.662046
87 2 0.29646 0.264299 0.698928
88 1 0.596993 0.671538 0.559805
89 2 0.605696 0.655257 0.557702
90 2 0.596531 0.694642 0.535827
91 1 0.191649 0.86468 0.468978
92 2 0.195556 0.894109 0.477665
93 2 0.188982 0.865509 0.436863
94 1 0.537236 0.789977 0.78445
95 2 0.539005 0.766405 0.76163
96 2 0.527469 0.797118 0.784892
97 1 0.536763 0.479128 0.153093
98 2 0.530239 0.49767 0.135935
99 2 0.546025 0.485155 0.142062
100 1 0.165966 0.187613 0.28521
101 2 0.16975 0.192332 0.254719
102 2 0.159893 0.161132 0.284884
103 1 0.277692 0.324565 0.606499
104 2 0.269206 0.319998 0.589466
105 2 0.277917 0.303802 0.632565
106 1 0.221214 0.287354 0.586528
107 2 0.229262 0.306237 0.580632
108 2 0.223955 0.259956 0.603169
109 1 0.236498 0.300365 0.485128
110 2 0.238205 0.314475 0.455469
111 2 0.22664 0.297824 0.490104
112 1 0.202621 0.931172 0.521817
113 2 0.197766 0.911716 0.543513
114 2 0.202804 0.962471 0.533268
115 1 0.555522 0.747761 0.723645
116 2 0.56198 0.763014 0.703269
117 2 0.560262 0.738312 0.751435
118 1 0.260856 0.770351 0.388616
119 2 0.255935 0.784882 0.3635
120 2 0.260027 0.789118 0.416025
121 1 0.988149 0.657323 0.560497
122 2 0.996107 0.665663 0.542113
123 2 0.98052 0.649524 0.540409
124 1 0.111387 0.425192 0.311954
125 2 0.1086 0.410985 0.340642
126 2 0.120537 0.438197 0.31536
127 1 0.810853 0.658263 0.77411
128 2 0.820453 0.659373 0.78338
129 2 0.806604 0.630681 0.786348
130 1 0.562078 0.476579 0.117815
131 2 0.563354 0.450049 0.137542
132 2 0.570583 0.494056 0.116432
133 1 0.205152 0.397857 0.778321
134 2 0.202088 0.399603 0.810004
135 2 0.21369 0.380574 0.776759
136 1 0.308594 0.351046 0.600053
137 2 0.303091 0.327714 0.58488
138 2 0.304565 0.381054 0.594555
139 1 0.381715 0.888413 0.958261
140 2 0.382505 0.89012 0.925076
141 2 0.390751 0.883174 0.971544
142 1 0.244505 0.781333 0.200787
143 2 0.247679 0.750487 0.193881
144 2 0.234819 0.780417 0.209033
145 1 0.333941 0.395444 0.540956
146 2 0.337105 0.371729 0.520041
147 2 0.329228 0.381328 0.566745
148 1 0.346073 0.0717625 0.342591
149 2 0.345814 0.0907196 0.315187
150 2 0.345418 0.0396418 0.333955
151 1 0.845516 0.32206 0.504009
152 2 0.853549 0.34067 0.510921
153 2 0.837329 0.336965 0.516019
154 1 0.419183 0.753845 0.271911
155 2 0.418177 0.725007 0.255535
156 2 0.416807 0.779109 0.25166
157 1 0.722008 0.922974 0.239378
158 2 0.715719 0.913537 0.215239
159 2 0.73004 0.93747 0.225805
160 1 0.721097 0.38145 0.672291
161 2 0.726241 0.369595 0.646279
162 2 0.711306 0.38008 0.665641
163 1 0.575283 0.4372 0.19759
164 2 0.568037 0.414615 0.201802
165 2 0.5753 0.458344 0.223359
166 1 0.452651 0.151212 0.523338
167 2 0.457455 0.179362 0.531229
168 2 0.447912 0.139497 0.550252
169 1 0.0276642 0.634646 0.431387
170 2 0.0245781 0.612306 0.408888
171 2 0.0337188 0.656732 0.41669
172 1 0.135673 0.440312 0.348392
173 2 0.13889 0.411499 0.361275
174 2 0.138792 0.465575 0.367492
175 1 0.630685 0.312049 0.570041
176 2 0.636445 0.30198 0.595361
177 2 0.634527 0.301014 0.541313
178 1 0.425704 0.647573 0.399949
179 2 0.433839 0.631991 0.388417
180 2 0.4268 0.68049 0.396178
181 1 0.284842 0.0633717 0.785473
182 2 0.280714 0.0334459 0.790597
183 2 0.278216 0.0833352 0.770481
184 1 0.801825 0.403183 0.487164
185 2 0.793151 0.410443 0.472249
186 2 0.800324 0.399529 0.519916
187 1 0.824605 0.414076 0.422551
188 2 0.814934 0.414157 0.431029
189 2 0.825939 0.433172 0.395594
190 1 0.305928 0.0684338 0.732003
191 2 0.298743 0.0661792 0.755077
192 2 0.314756 0.0731146 0.746949
193 1 0.832703 0.517873 0.384618
194 2 0.837743 0.539247 0.403908
195 2 0.837165 0.515707 0.354866
196 1 0.34589 0.550213 0.870661
197 2 0.35238 0.570246 0.886208
198 2 0.349733 0.51951 0.868576
199 1 0.227657 0.346804 0.763569
200 2 0.229384 0.356522 0.732207
201 2 0.226177 0.313845 0.76426
202 1 0.192861 0.480265 0.772733
203 2 0.197669 0.451112 0.770652
204 2 0.193086 0.495497 0.743093
205 1 0.556776 0.367557 0.20308
206 2 0.553134 0.337825 0.194146
207 2 0.549482 0.385844 0.216706
208 1 0.748044 0.0419393 0.534782
209 2 0.755809 0.0560997 0.519269
210 2 0.740456 0.0635993 0.53622
211 1 0.569598 0.784724 0.647478
212 2 0.570403 0.753944 0.634967
213 2 0.569618 0.806884 0.622577
214 1 0.214361 0.681043 0.277175
215 2 0.223884 0.678811 0.2871
216 2 0.208537 0.663793 0.298072
217 1 0.318188 0.528338 0.879563
218 2 0.314957 0.559442 0.884825
219 2 0.327691 0.529151 0.869219
220 1 0.816817 0.620898 0.68248
221 2 0.813253 0.634821 0.654621
222 2 0.812104 0.633777 0.708908
223 1 0.145492 0.360825 0.376481
224 2 0.141834 0.351231 0.346978
225 2 0.153601 0.342727 0.383749
226 1 0.249395 0.801744 0.30172
227 2 0.241819 0.822742 0.296027
228 2 0.254891 0.798638 0.274046
229 1 0.812317 0.66532 0.601149
230 2 0.806407 0.651367 0.578163
231 2 0.821442 0.670012 0.588346
232 1 0.558889 0.806759 0.839839
233 2 0.567749 0.81619 0.827594
234 2 0.552189 0.80536 0.815135
235 1 0.25856 0.678025 0.385782
236 2 0.262197 0.709037 0.384253
237 2 0.260997 0.664351 0.415076
238 1 0.0837609 0.533337 0.197064
239 2 0.088802 0.517869 0.221344
240 2 0.0802362 0.562381 0.208446
241 1 0.987918 0.658101 0.661421
242 2 0.979884 0.639139 0.667281
243 2 0.988598 0.664338 0.628755
244 1 0.346592 0.212081 0.992009
245 2 0.341269 0.183871 0.991268
246 2 0.353672 0.209751 0.0154306
247 1 0.354353 0.87995 0.947461
248 2 0.35521 0.851056 0.931089
249 2 0.3632 0.888236 0.960605
250 1 0.85053 0.370877 0.399226
251 2 0.840771 0.375095 0.405161
252 2 0.854418 0.350585 0.422277
253 1 0.207026 0.295212 0.494429
254 2 0.207137 0.292816 0.527674
255 2 0.197591 0.298471 0.483874
256 1 0.573425 0.702557 0.611678
257 2 0.582194 0.690805 0.600781
258 2 0.566134 0.681306 0.603387
259 1 0.481231 0.209879 0.506695
260 2 0.474992 0.213926 0.480959
261 2 0.488252 0.187545 0.498663
262 1 0.986257 0.196829 0.584062
263 2 0.986234 0.173293 0.560458
264 2 0.984141 0.226368 0.57032
265 1 0.690082 0.0634489 0.664569
266 2 0.693002 0.0574723 0.695885
267 2 0.694228 0.0410012 0.644165
268 1 0.616389 0.309503 0.430835
269 2 0.614621 0.314828 0.463208
270 2 0.609243 0.324105 0.412656
271 1 0.813641 0.577631 0.827734
272 2 0.808811 0.548913 0.83295
273 2 0.820906 0.572883 0.805326
274 1 0.880058 0.610544 0.362966
275 2 0.889645 0.607721 0.372019
276 2 0.879245 0.605665 0.330103
277 1 0.841366 0.430247 0.504593
278 2 0.849948 0.436391 0.488624
279 2 0.833667 0.437378 0.484552
280 1 0.418516 0.663514 0.226125
281 2 0.421471 0.641816 0.202817
282 2 0.419187 0.649298 0.256192
283 1 0.348355 0.278444 0.46418
284 2 0.352559 0.248686 0.469586
285 2 0.355069 0.298916 0.450354
286 1 0.0240811 0.563148 0.379868
287 2 0.0163817 0.549282 0.363738
288 2 0.0317344 0.541708 0.380667
289 1 0.259824 0.652416 0.118035
290 2 0.250697 0.640591 0.111272
291 2 0.263523 0.636737 0.144742
292 1 0.0847291 0.442086 0.176046
293 2 0.0809261 0.437838 0.145512
294 2 0.0841153 0.474252 0.184549
295 1 0.189211 0.4174 0.854029
296 2 0.187452 0.437643 0.828203
297 2 0.185706 0.431352 0.881957
298 1 0.243433 0.704159 0.30341
299 2 0.244324 0.736654 0.310221
300 2 0.249054 0.686597 0.324663
ITEM: TIMESTEP
2100
ITEM: NUMBER OF ATOMS
300
ITEM: BOX BOUNDS pp ff pp
0.0000000000000000e+00 1.0000000000000000e+02
0.0000000000000000e+00 3.0000000000000000e+01
0.0000000000000000e+00 3.0000000000000000e+01
ITEM: ATOMS id type xs ys zs
1 1 0.375229 0.892246 0.876037
2 2 0.374128 0.918036 0.855241
3 2 0.367187 0.889939 0.895715
4 1 0.604015 0.446174 0.146811
5 2 0.609278 0.420814 0.134157
6 2 0.596755 0.434263 0.166398
7 1 0.0435752 0.865966 0.481556
8 2 0.0523814 0.854757 0.470429
9 2 0.0443872 0.898232 0.489474
10 1 0.636377 0.335623 0.625242
11 2 0.643375 0.319061 0.642351
12 2 0.629395 0.346921 0.646262
13 1 0.859602 0.450287 0.419171
14 2 0.856773 0.418644 0.414596
15 2 0.857761 0.467822 0.391495
16 1 0.212573 0.295392 0.679726
17 2 0.208069 0.314889 0.702212
18 2 0.205669 0.280969 0.660399
19 1 0.420567 0.174295 0.648776
20 2 0.428017 0.184514 0.668528
21 2 0.416532 0.146495 0.661318
22 1 0.122685 0.344384 0.288965
23 2 0.118504 0.374657 0.289628
24 2 0.116161 0.322412 0.276499
25 1 0.411319 0.738554 0.363988
26 2 0.417353 0.756847 0.383275
27 2 0.412056 0.748915 0.332401
28 1 0.545156 0.414338 0.220197
29 2 0.539932 0.429857 0.244008
30 2 0.540942 0.420209 0.190544
31 1 0.571722 0.563037 0.218229
32 2 0.564672 0.562697 0.19459
33 2 0.579029 0.541825 0.209988
34 1 0.124253 0.79119 0.223643
35 2 0.117409 0.796328 0.247397
36 2 0.13328 0.788031 0.237633
37 1 0.318677 0.308061 0.674833
38 2 0.322896 0.323076 0.701061
39 2 0.325687 0.301336 0.652033
40 1 0.340569 0.110543 0.418795
41 2 0.34212 0.0842335 0.398993
42 2 0.331082 0.120653 0.415807
43 1 0.0940387 0.461727 0.27866
44 2 0.0941671 0.43632 0.257087
45 2 0.0997297 0.454237 0.305025
46 1 0.613127 0.275097 0.61718
47 2 0.605085 0.258576 0.606245
48 2 0.618231 0.287128 0.591163
49 1 0.574393 0.571172 0.309869
50 2 0.569461 0.56978 0.280905
51 2 0.584181 0.567194 0.30433
52 1 0.824071 0.541464 0.761459
53 2 0.833826 0.548224 0.758596
54 2 0.819249 0.552544 0.734441
55 1 0.593139 0.942636 0.031765
56 2 0.594571 0.945934 0.998941
57 2 0.588061 0.914553 0.0377648
58 1 0.245335 0.287198 0.561245
59 2 0.245917 0.299096 0.530167
60 2 0.254202 0.27466 0.570206
61 1 0.34391 0.293461 0.955064
62 2 0.343353 0.261908 0.965651
63 2 0.345791 0.313512 0.980944
64 1 0.357237 0.198334 0.468888
65 2 0.35521 0.171968 0.449644
66 2 0.361046 0.187948 0.497905
67 1 0.222383 0.766625 0.262641
68 2 0.221482 0.733735 0.258127
69 2 0.21398 0.778582 0.276192
70 1 0.855537 0.527026 0.384773
71 2 0.857676 0.530508 0.417148
72 2 0.860324 0.550499 0.367295
73 1 0.0134493 0.631104 0.481521
74 2 0.0111672 0.641595 0.450809
75 2 0.0227448 0.618816 0.481707
76 1 0.831498 0.891575 0.803582
77 2 0.831313 0.878974 0.834436
78 2 0.83714 0.872196 0.78404
79 1 0.335342 0.125558 0.960408
80 2 0.332461 0.114336 0.990291
81 2 0.338241 0.0998809 0.941477
82 1 0.592557 0.522095 0.180085
83 2 0.596953 0.49929 0.160686
84 2 0.59895 0.531874 0.203777
85 1 0.294335 0.259892 0.663811
86 2 0.294713 0.236565 0.640034
87 2 0.303184 0.275284 0.665848
88 1 0.597303 0.680434 0.552964
89 2 0.602259 0.662759 0.575894
90 2 0.600549 0.672065 0.522567
91 1 0.191951 0.899407 0.455347
92 2 0.201856 0.899963 0.459895
93 2 0.187452 0.914619 0.480936
94 1 0.536139 0.799487 0.797127
95 2 0.542287 0.783529 0.776233
96 2 0.526674 0.791267 0.790189
97 1 0.540025 0.472188 0.145567
98 2 0.535542 0.479527 0.116688
99 2 0.548926 0.487323 0.146886
100 1 0.166693 0.218334 0.242362
101 2 0.163795 0.230724 0.212965
102 2 0.162105 0.189204 0.247709
103 1 0.282527 0.34316 0.615469
104 2 0.275067 0.364091 0.62286
105 2 0.282785 0.318552 0.637937
106 1 0.220986 0.272268 0.595209
107 2 0.228662 0.282927 0.576692
108 2 0.222801 0.278802 0.627331
109 1 0.240658 0.326324 0.484525
110 2 0.23962 0.35717 0.496676
111 2 0.23265 0.318569 0.46613
112 1 0.215046 0.941034 0.491896
113 2 0.219514 0.969556 0.48319
114 2 0.217029 0.934361 0.523879
115 1 0.552325 0.75151 0.728265
116 2 0.55766 0.757949 0.700817
117 2 0.55681 0.727417 0.745791
118 1 0.270962 0.769749 0.371799
119 2 0.270178 0.788094 0.399508
120 2 0.263372 0.77691 0.351308
121 1 0.996622 0.661779 0.562744
122 2 0.00374579 0.651683 0.541642
123 2 0.987713 0.65114 0.551968
124 1 0.11152 0.43452 0.344811
125 2 0.107333 0.423297 0.372924
126 2 0.120904 0.444206 0.351034
127 1 0.806429 0.648055 0.76265
128 2 0.806383 0.68125 0.759619
129 2 0.800273 0.639059 0.787332
130 1 0.566592 0.498582 0.142905
131 2 0.566962 0.471947 0.16291
132 2 0.575866 0.509744 0.137345
133 1 0.205856 0.40631 0.790353
134 2 0.19977 0.408883 0.816677
135 2 0.213595 0.386666 0.798086
136 1 0.308617 0.369284 0.603007
137 2 0.299223 0.361407 0.611287
138 2 0.314976 0.350413 0.620491
139 1 0.379861 0.855042 0.964002
140 2 0.38309 0.865809 0.934349
141 2 0.385329 0.868993 0.988173
142 1 0.250643 0.773907 0.206959
143 2 0.254207 0.783619 0.177367
144 2 0.240648 0.773468 0.205956
145 1 0.331414 0.337067 0.563165
146 2 0.333046 0.326674 0.531964
147 2 0.322737 0.353584 0.564491
148 1 0.348318 0.0512606 0.348791
149 2 0.343869 0.0225847 0.340494
150 2 0.349965 0.0692899 0.321297
151 1 0.845173 0.345506 0.538961
152 2 0.84829 0.377158 0.537815
153 2 0.84862 0.331038 0.566705
154 1 0.41709 0.74602 0.279878
155 2 0.422923 0.719133 0.276686
156 2 0.416229 0.761224 0.250353
157 1 0.724556 0.929445 0.237712
158 2 0.723992 0.951975 0.262206
159 2 0.72006 0.941402 0.210444
160 1 0.716172 0.395128 0.683579
161 2 0.710239 0.420412 0.69257
162 2 0.723133 0.390296 0.707015
163 1 0.579068 0.43659 0.201773
164 2 0.574649 0.410394 0.216193
165 2 0.579997 0.461228 0.224011
166 1 0.447647 0.163745 0.529588
167 2 0.439925 0.176374 0.546592
168 2 0.448972 0.131845 0.538188
169 1 0.0142329 0.630678 0.380877
170 2 0.0156717 0.597964 0.376648
171 2 0.019373 0.647499 0.357755
172 1 0.138745 0.444919 0.362866
173 2 0.141253 0.41367 0.354821
174 2 0.145612 0.457577 0.383527
175 1 0.626042 0.315115 0.54382
176 2 0.631187 0.321691 0.571637
177 2 0.632407 0.310323 0.51856
178 1 0.415851 0.648742 0.385271
179 2 0.408421 0.63097 0.371784
180 2 0.414411 0.681107 0.378897
181 1 0.284792 0.0634236 0.770347
182 2 0.288338 0.0630057 0.801511
183 2 0.277681 0.0867181 0.767766
184 1 0.807525 0.417937 0.493448
185 2 0.814834 0.407335 0.513574
186 2 0.799603 0.426877 0.511723
187 1 0.826117 0.428876 0.415831
188 2 0.817083 0.421809 0.428254
189 2 0.825225 0.451897 0.391908
190 1 0.310314 0.0629351 0.740813
191 2 0.300505 0.0566396 0.742367
192 2 0.314656 0.0414137 0.719875
193 1 0.829551 0.493139 0.340688
194 2 0.838565 0.50489 0.349066
195 2 0.830597 0.468599 0.3184
196 1 0.338173 0.566373 0.862004
197 2 0.34707 0.551199 0.860902
198 2 0.339039 0.597303 0.849917
199 1 0.225537 0.325565 0.795321
200 2 0.218725 0.302263 0.802565
201 2 0.227317 0.325482 0.76252
202 1 0.193289 0.487047 0.791925
203 2 0.20138 0.468163 0.786711
204 2 0.190526 0.501414 0.763292
205 1 0.564055 0.35953 0.251697
206 2 0.562909 0.326422 0.251061
207 2 0.555769 0.374125 0.240063
208 1 0.750191 0.0363857 0.557216
209 2 0.748642 0.0621249 0.577757
210 2 0.759385 0.0242299 0.562123
211 1 0.567984 0.769857 0.6616
212 2 0.57027 0.745707 0.639924
213 2 0.569761 0.799558 0.647678
214 1 0.218064 0.680718 0.245634
215 2 0.224713 0.677945 0.270377
216 2 0.215577 0.650344 0.23469
217 1 0.312898 0.529394 0.860484
218 2 0.307077 0.532347 0.887426
219 2 0.321258 0.547153 0.864859
220 1 0.817347 0.602784 0.694374
221 2 0.815401 0.624748 0.670154
222 2 0.814383 0.615291 0.723651
223 1 0.142173 0.350854 0.344733
224 2 0.133243 0.358553 0.331855
225 2 0.145583 0.322927 0.330521
226 1 0.245336 0.795865 0.312615
227 2 0.235439 0.797929 0.308329
228 2 0.249802 0.792782 0.28295
229 1 0.807464 0.665996 0.622895
230 2 0.815861 0.677843 0.609207
231 2 0.800158 0.665984 0.600137
232 1 0.561394 0.817008 0.849505
233 2 0.55304 0.800309 0.84197
234 2 0.563733 0.837512 0.824406
235 1 0.264062 0.683474 0.377166
236 2 0.266661 0.712937 0.364206
237 2 0.272153 0.668565 0.389874
238 1 0.0920169 0.511893 0.202157
239 2 0.0964088 0.509145 0.231977
240 2 0.092686 0.543414 0.191548
241 1 0.989576 0.646784 0.653757
242 2 0.997374 0.648913 0.674518
243 2 0.992518 0.654513 0.62285
244 1 0.347976 0.206672 0.989392
245 2 0.342248 0.181911 0.977836
246 2 0.356907 0.194555 0.998217
247 1 0.355537 0.890603 0.932145
248 2 0.352725 0.92175 0.93943
249 2 0.361613 0.879218 0.956045
250 1 0.847932 0.3747 0.402547
251 2 0.842737 0.36943 0.374555
252 2 0.841843 0.371956 0.428847
253 1 0.215843 0.297567 0.458117
254 2 0.211972 0.286227 0.486683
255 2 0.209852 0.289153 0.432791
256 1 0.571632 0.712565 0.594301
257 2 0.578815 0.707738 0.571617
258 2 0.563582 0.694555 0.586137
259 1 0.475159 0.216074 0.499486
260 2 0.466412 0.202334 0.507982
261 2 0.473866 0.235756 0.472932
262 1 0.98855 0.195241 0.586921
263 2 0.981218 0.177631 0.572648
264 2 0.985649 0.226964 0.590284
265 1 0.695839 0.0416611 0.672701
266 2 0.691123 0.0238766 0.649298
267 2 0.701342 0.0653952 0.658167
268 1 0.609164 0.304617 0.478623
269 2 0.61231 0.316199 0.508068
270 2 0.603137 0.327071 0.464367
271 1 0.819016 0.579161 0.845206
272 2 0.81679 0.549181 0.857745
273 2 0.821773 0.575908 0.81333
274 1 0.870863 0.603612 0.367641
275 2 0.872241 0.632734 0.383196
276 2 0.867228 0.609129 0.337081
277 1 0.840989 0.449336 0.486061
278 2 0.849322 0.460879 0.471694
279 2 0.834452 0.440347 0.462492
280 1 0.428687 0.655742 0.26027
281 2 0.430304 0.636681 0.287079
282 2 0.424159 0.637693 0.236657
283 1 0.340816 0.278186 0.484778
284 2 0.34471 0.247678 0.481326
285 2 0.34805 0.300959 0.481465
286 1 0.0155309 0.54569 0.375176
287 2 0.0137906 0.523701 0.399547
288 2 0.0186549 0.529575 0.347919
289 1 0.262361 0.659051 0.125626
290 2 0.256358 0.685446 0.129387
291 2 0.26549 0.648667 0.155533
292 1 0.0894491 0.423917 0.185569
293 2 0.085161 0.41491 0.156834
294 2 0.0891453 0.457101 0.18856
295 1 0.192705 0.426494 0.866806
296 2 0.190574 0.457089 0.855644
297 2 0.195384 0.428163 0.898877
298 1 0.237736 0.695701 0.31824
299 2 0.237678 0.728992 0.319906
300 2 0.243714 0.683502 0.342014
ITEM: TIMESTEP
2200
ITEM: NUMBER OF ATOMS
300
ITEM: BOX BOUNDS pp ff pp
0.0000000000000000e+00 1.0000000000000000e+02
0.0000000000000000e+00 3.0000000000000000e+01
0.0000000000000000e+00 3.0000000000000000e+01
ITEM: ATOMS id type xs ys zs
1 1 0.373777 0.868919 0.873443
2 2 0.375276 0.897956 0.857854
3 2 0.367672 0.873617 0.899424
4 1 0.59999 0.464899 0.129508
5 2 0.599604 0.458125 0.0968958
6 2 0.596757 0.438501 0.146773
7 1 0.0438213 0.879767 0.48426
8 2 0.0362178 0.878918 0.505894
9 2 0.0510367 0.89958 0.496096
10 1 0.635467 0.35358 0.621774
11 2 0.639341 0.336587 0.647379
12 2 0.62639 0.341573 0.6146
13 1 0.865823 0.39988 0.435745
14 2 0.858897 0.387168 0.415336
15 2 0.86859 0.376728 0.457882
16 1 0.211054 0.284497 0.689657
17 2 0.202039 0.271092 0.684318
18 2 0.217191 0.276218 0.664676
19 1 0.42398 0.125741 0.606934
20 2 0.423625 0.0950067 0.619783
21 2 0.416317 0.130002 0.585949
22 1 0.116546 0.366461 0.286746
23 2 0.112381 0.375108 0.315791
24 2 0.110841 0.377399 0.26165
25 1 0.400026 0.739782 0.347568
26 2 0.402915 0.7671 0.364063
27 2 0.402547 0.742664 0.31544
28 1 0.543512 0.407341 0.244237
29 2 0.537765 0.43239 0.255039
30 2 0.544259 0.408782 0.211028
31 1 0.56706 0.559205 0.212228
32 2 0.564193 0.530063 0.199167
33 2 0.575712 0.568641 0.198432
34 1 0.129166 0.78072 0.226516
35 2 0.125232 0.753342 0.240287
36 2 0.128219 0.806357 0.247585
37 1 0.320768 0.302619 0.687648
38 2 0.325222 0.327589 0.703993
39 2 0.327126 0.289782 0.66535
40 1 0.345071 0.11583 0.416732
41 2 0.349195 0.0885 0.403493
42 2 0.336975 0.107282 0.434332
43 1 0.0932214 0.466623 0.296689
44 2 0.0947969 0.437901 0.280608
45 2 0.0985368 0.46695 0.324922
46 1 0.612384 0.287633 0.611043
47 2 0.606091 0.276871 0.634605
48 2 0.60852 0.281294 0.58096
49 1 0.58265 0.586334 0.303753
50 2 0.582449 0.619632 0.305152
51 2 0.576339 0.575779 0.280149
52 1 0.823667 0.521334 0.774658
53 2 0.827635 0.491212 0.769295
54 2 0.81859 0.531011 0.74762
55 1 0.594486 0.949209 0.0371185
56 2 0.58999 0.924354 0.0207263
57 2 0.594576 0.976526 0.0180183
58 1 0.238925 0.301497 0.568262
59 2 0.241621 0.31936 0.541593
60 2 0.245102 0.275507 0.571679
61 1 0.33711 0.299756 0.967995
62 2 0.341566 0.271615 0.977925
63 2 0.33459 0.29714 0.935844
64 1 0.349825 0.196996 0.454886
65 2 0.351994 0.164994 0.448994
66 2 0.358252 0.213715 0.461404
67 1 0.220267 0.781942 0.252081
68 2 0.223949 0.751108 0.248966
69 2 0.210517 0.780285 0.259303
70 1 0.848898 0.545942 0.337913
71 2 0.855323 0.521127 0.331864
72 2 0.853694 0.575129 0.336015
73 1 0.0113433 0.62182 0.461748
74 2 0.0114385 0.622224 0.428418
75 2 0.0130324 0.590788 0.472537
76 1 0.837222 0.878385 0.785772
77 2 0.8308 0.892977 0.806748
78 2 0.845148 0.898208 0.78129
79 1 0.337918 0.128803 0.952912
80 2 0.331216 0.142955 0.973204
81 2 0.335016 0.0977339 0.945682
82 1 0.594929 0.543733 0.166935
83 2 0.597923 0.515191 0.152904
84 2 0.602218 0.555633 0.186407
85 1 0.294341 0.294333 0.674565
86 2 0.290718 0.267017 0.689368
87 2 0.30395 0.298255 0.682918
88 1 0.599892 0.687857 0.547134
89 2 0.605653 0.714528 0.541563
90 2 0.604878 0.665938 0.565961
91 1 0.192376 0.943761 0.441108
92 2 0.200684 0.925218 0.44164
93 2 0.191102 0.958245 0.470828
94 1 0.538274 0.810914 0.807391
95 2 0.540728 0.78724 0.785396
96 2 0.540091 0.840916 0.794189
97 1 0.54481 0.440778 0.155976
98 2 0.540586 0.445293 0.126101
99 2 0.553289 0.458364 0.157712
100 1 0.165968 0.266026 0.220214
101 2 0.174416 0.270426 0.202928
102 2 0.162158 0.235993 0.213303
103 1 0.279782 0.379027 0.626679
104 2 0.273505 0.395672 0.646582
105 2 0.281144 0.348231 0.638599
106 1 0.222396 0.254084 0.616129
107 2 0.227329 0.282079 0.608581
108 2 0.221846 0.234647 0.589112
109 1 0.241008 0.348352 0.481534
110 2 0.247302 0.351517 0.455825
111 2 0.232377 0.33534 0.470857
112 1 0.22118 0.955281 0.464961
113 2 0.228042 0.957603 0.489097
114 2 0.225706 0.956046 0.435246
115 1 0.546797 0.743612 0.752634
116 2 0.552963 0.756096 0.729553
117 2 0.545579 0.710944 0.747394
118 1 0.272675 0.761331 0.367754
119 2 0.271995 0.779823 0.395395
120 2 0.26606 0.77223 0.345256
121 1 0.00457927 0.648502 0.546712
122 2 0.00772528 0.64223 0.515699
123 2 0.00275995 0.681113 0.550007
124 1 0.108833 0.421587 0.370821
125 2 0.107339 0.411264 0.402122
126 2 0.118554 0.427931 0.366239
127 1 0.8008 0.640376 0.768894
128 2 0.793411 0.661274 0.777127
129 2 0.805439 0.629989 0.796536
130 1 0.569768 0.484227 0.147817
131 2 0.573657 0.45734 0.162656
132 2 0.577158 0.504078 0.137313
133 1 0.212959 0.39446 0.807834
134 2 0.209845 0.390893 0.839309
135 2 0.217491 0.366465 0.797878
136 1 0.306863 0.353937 0.610266
137 2 0.299884 0.377808 0.609951
138 2 0.303222 0.326795 0.625336
139 1 0.375901 0.831813 0.98324
140 2 0.375269 0.798662 0.980473
141 2 0.382487 0.843445 0.961019
142 1 0.245506 0.772696 0.198865
143 2 0.24476 0.759111 0.168528
144 2 0.236381 0.780383 0.210124
145 1 0.334552 0.282952 0.586106
146 2 0.337827 0.285478 0.554713
147 2 0.326228 0.301073 0.589711
148 1 0.348336 0.0416156 0.363284
149 2 0.34979 0.0564556 0.333832
150 2 0.348213 0.00854494 0.359128
151 1 0.838667 0.381497 0.56712
152 2 0.835845 0.374034 0.536025
153 2 0.832703 0.405304 0.579331
154 1 0.413977 0.736457 0.275318
155 2 0.421413 0.719306 0.28955
156 2 0.415176 0.736367 0.242225
157 1 0.726091 0.937389 0.236872
158 2 0.733661 0.955655 0.225007
159 2 0.723012 0.950153 0.265904
160 1 0.705499 0.384525 0.685861
161 2 0.697575 0.385415 0.665547
162 2 0.709326 0.415175 0.688849
163 1 0.582965 0.434248 0.210328
164 2 0.57702 0.41251 0.22601
165 2 0.588414 0.450913 0.232764
166 1 0.442291 0.176364 0.553399
167 2 0.447639 0.148372 0.556523
168 2 0.43579 0.17861 0.578627
169 1 0.00905836 0.608346 0.369266
170 2 0.0138099 0.579954 0.361909
171 2 0.00398963 0.61889 0.342536
172 1 0.136275 0.4236 0.372807
173 2 0.140651 0.408019 0.347201
174 2 0.143087 0.441678 0.389202
175 1 0.628162 0.320593 0.490015
176 2 0.631153 0.297281 0.511654
177 2 0.635656 0.341932 0.48438
178 1 0.405524 0.646231 0.359841
179 2 0.397226 0.631736 0.371497
180 2 0.403172 0.675397 0.345734
181 1 0.284204 0.0799488 0.759263
182 2 0.279626 0.0788449 0.729649
183 2 0.293644 0.0694683 0.755943
184 1 0.816158 0.45326 0.500842
185 2 0.814128 0.476022 0.524236
186 2 0.826066 0.450101 0.497637
187 1 0.82754 0.412946 0.390756
188 2 0.819751 0.418286 0.410964
189 2 0.826867 0.43302 0.36424
190 1 0.309712 0.0616341 0.727932
191 2 0.319258 0.0521261 0.730814
192 2 0.306922 0.0597763 0.695976
193 1 0.825772 0.490437 0.336652
194 2 0.830109 0.515659 0.352961
195 2 0.830908 0.483955 0.308794
196 1 0.328126 0.58742 0.855596
197 2 0.325177 0.613632 0.87369
198 2 0.333314 0.598032 0.82915
199 1 0.220026 0.304256 0.774143
200 2 0.221917 0.273498 0.785337
201 2 0.216236 0.302501 0.743347
202 1 0.195884 0.481342 0.795282
203 2 0.198606 0.450373 0.786935
204 2 0.200821 0.503241 0.776291
205 1 0.569497 0.371866 0.265289
206 2 0.568293 0.340996 0.277207
207 2 0.560745 0.387967 0.266092
208 1 0.752672 0.0307584 0.58297
209 2 0.749725 0.0546559 0.60403
210 2 0.753299 0.00175666 0.599269
211 1 0.564608 0.772759 0.680915
212 2 0.566245 0.757139 0.651978
213 2 0.569654 0.801534 0.681354
214 1 0.234049 0.705159 0.250053
215 2 0.235882 0.684808 0.275736
216 2 0.242605 0.711847 0.234148
217 1 0.309004 0.521358 0.842029
218 2 0.315373 0.496513 0.848601
219 2 0.313519 0.550583 0.847559
220 1 0.809394 0.580205 0.709582
221 2 0.808552 0.590987 0.678166
222 2 0.806205 0.603918 0.730459
223 1 0.148494 0.357912 0.314883
224 2 0.138819 0.350024 0.311921
225 2 0.154098 0.332842 0.303317
226 1 0.250136 0.789894 0.304787
227 2 0.240804 0.783482 0.314908
228 2 0.2503 0.792568 0.271566
229 1 0.807338 0.649101 0.644724
230 2 0.80646 0.660658 0.675853
231 2 0.807194 0.674635 0.623302
232 1 0.564878 0.822311 0.845308
233 2 0.554939 0.825853 0.846307
234 2 0.567224 0.796375 0.825884
235 1 0.267492 0.664362 0.363084
236 2 0.268792 0.693585 0.347646
237 2 0.274983 0.659348 0.38459
238 1 0.0898143 0.499951 0.202788
239 2 0.0886948 0.503613 0.235709
240 2 0.0808455 0.495974 0.188592
241 1 0.994854 0.635949 0.627961
242 2 0.00399297 0.633947 0.641342
243 2 0.995631 0.642228 0.595327
244 1 0.351054 0.209179 0.974277
245 2 0.346977 0.180301 0.964662
246 2 0.358393 0.203217 0.996122
247 1 0.358702 0.895165 0.937905
248 2 0.354004 0.920401 0.953039
249 2 0.362072 0.873719 0.960818
250 1 0.846604 0.356045 0.395064
251 2 0.845234 0.325023 0.383756
252 2 0.838403 0.374173 0.389128
253 1 0.217385 0.299521 0.455914
254 2 0.21004 0.31535 0.472069
255 2 0.217114 0.267058 0.463428
256 1 0.567323 0.741006 0.597798
257 2 0.575904 0.726073 0.589436
258 2 0.560265 0.733224 0.575504
259 1 0.466851 0.219828 0.496117
260 2 0.458515 0.209287 0.51121
261 2 0.471787 0.193676 0.483609
262 1 0.990186 0.194406 0.589013
263 2 0.981185 0.180147 0.59174
264 2 0.991102 0.21835 0.612003
265 1 0.702918 0.04312 0.674614
266 2 0.700363 0.0295657 0.645375
267 2 0.69578 0.0643266 0.684377
268 1 0.602318 0.308139 0.528259
269 2 0.610416 0.326377 0.521192
270 2 0.598344 0.296482 0.49998
271 1 0.823337 0.587894 0.837582
272 2 0.833074 0.592173 0.843857
273 2 0.822238 0.568219 0.810926
274 1 0.864474 0.624669 0.347313
275 2 0.866996 0.649945 0.327274
276 2 0.858348 0.635756 0.371213
277 1 0.84092 0.425258 0.470145
278 2 0.850781 0.420221 0.472464
279 2 0.838048 0.421717 0.438413
280 1 0.433583 0.670338 0.31348
281 2 0.426561 0.660426 0.335045
282 2 0.442044 0.676969 0.329963
283 1 0.34166 0.281629 0.494399
284 2 0.342289 0.249113 0.487369
285 2 0.341503 0.299119 0.466028
286 1 0.0157571 0.522648 0.358691
287 2 0.0167615 0.503376 0.331701
288 2 0.0231999 0.516293 0.380027
289 1 0.264808 0.676323 0.147159
290 2 0.271663 0.668691 0.170194
291 2 0.261882 0.648533 0.131547
292 1 0.101951 0.408966 0.219489
293 2 0.102388 0.39712 0.188366
294 2 0.0996859 0.441423 0.218681
295 1 0.19864 0.442113 0.872991
296 2 0.197445 0.460443 0.845436
297 2 0.192457 0.453146 0.896752
298 1 0.241209 0.656501 0.323538
299 2 0.240608 0.62324 0.324416
300 2 0.247093 0.66711 0.348314
ITEM: TIMESTEP
2300
ITEM: NUMBER OF ATOMS
300
ITEM: BOX BOUNDS pp ff pp
0.0000000000000000e+00 1.0000000000000000e+02
0.0000000000000000e+00 3.0000000000000000e+01
0.0000000000000000e+00 3.0000000000000000e+01
ITEM: ATOMS id type xs ys zs
1 1 0.375969 0.843724 0.88846
2 2 0.37341 0.846324 0.856342
3 2 0.37057 0.865205 0.90651
4 1 0.602697 0.478236 0.149413
5 2 0.607503 0.453904 0.133213
6 2 0.597916 0.465434 0.175742
7 1 0.0430184 0.887502 0.489926
8 2 0.0342524 0.89671 0.50306
9 2 0.0504771 0.900362 0.508025
10 1 0.632163 0.358106 0.589452
11 2 0.627268 0.365162 0.561254
12 2 0.626614 0.337644 0.608167
13 1 0.862318 0.353709 0.464321
14 2 0.861816 0.348122 0.431502
15 2 0.861919 0.324661 0.480619
16 1 0.215879 0.278802 0.692521
17 2 0.206661 0.271814 0.681649
18 2 0.222575 0.269088 0.669749
19 1 0.422725 0.102991 0.555203
20 2 0.426465 0.090921 0.526742
21 2 0.412766 0.104909 0.552864
22 1 0.12044 0.380369 0.286449
23 2 0.117204 0.398459 0.312284
24 2 0.115487 0.389361 0.258923
25 1 0.391401 0.722152 0.309063
26 2 0.388196 0.748652 0.326232
27 2 0.399094 0.731049 0.289714
28 1 0.544052 0.398848 0.263963
29 2 0.537157 0.41999 0.275626
30 2 0.545998 0.405984 0.232055
31 1 0.574295 0.56047 0.214251
32 2 0.572706 0.527563 0.214733
33 2 0.579878 0.568341 0.18774
34 1 0.136506 0.758314 0.238304
35 2 0.127526 0.74367 0.239111
36 2 0.136795 0.780255 0.213229
37 1 0.315173 0.273671 0.674337
38 2 0.320541 0.256507 0.696615
39 2 0.32126 0.286098 0.65099
40 1 0.343064 0.0922342 0.412009
41 2 0.348833 0.0744598 0.391383
42 2 0.346186 0.0879225 0.443381
43 1 0.0938441 0.463767 0.316996
44 2 0.0916722 0.432805 0.306995
45 2 0.100826 0.462588 0.34083
46 1 0.609324 0.304371 0.616276
47 2 0.603599 0.280322 0.629264
48 2 0.604453 0.319088 0.591159
49 1 0.586863 0.593434 0.328282
50 2 0.581877 0.589515 0.35691
51 2 0.580918 0.58533 0.302733
52 1 0.820758 0.525029 0.783115
53 2 0.822826 0.492666 0.779081
54 2 0.813116 0.53351 0.763361
55 1 0.59694 0.960049 0.0455856
56 2 0.589905 0.97056 0.0243579
57 2 0.598121 0.927105 0.0423719
58 1 0.244181 0.305257 0.572863
59 2 0.24095 0.329768 0.553005
60 2 0.253546 0.311744 0.58259
61 1 0.331709 0.287548 0.977158
62 2 0.335722 0.257116 0.979622
63 2 0.337011 0.305734 0.955523
64 1 0.350216 0.222031 0.441333
65 2 0.349391 0.191654 0.427885
66 2 0.350885 0.244767 0.417059
67 1 0.224126 0.774217 0.222548
68 2 0.229156 0.761723 0.248506
69 2 0.216719 0.753425 0.214222
70 1 0.847089 0.540759 0.312454
71 2 0.856014 0.529844 0.322791
72 2 0.846655 0.573895 0.315775
73 1 0.0111221 0.603138 0.453701
74 2 0.0100337 0.591389 0.422719
75 2 0.00476477 0.587441 0.474089
76 1 0.84078 0.859414 0.772249
77 2 0.839121 0.892267 0.771166
78 2 0.850303 0.853761 0.780704
79 1 0.341595 0.132895 0.965477
80 2 0.335753 0.133515 0.93843
81 2 0.346332 0.103585 0.96713
82 1 0.586154 0.548237 0.117453
83 2 0.594609 0.530847 0.12124
84 2 0.586223 0.563448 0.0877935
85 1 0.289495 0.319279 0.679209
86 2 0.284952 0.318379 0.70889
87 2 0.297747 0.300475 0.680198
88 1 0.591911 0.704832 0.55338
89 2 0.59368 0.696457 0.585101
90 2 0.60058 0.707007 0.536907
91 1 0.199701 0.967148 0.424372
92 2 0.207918 0.949327 0.4178
93 2 0.197571 0.98664 0.39828
94 1 0.541287 0.82336 0.810879
95 2 0.542855 0.792544 0.799294
96 2 0.532084 0.833334 0.802481
97 1 0.548006 0.415495 0.180461
98 2 0.542658 0.408962 0.153062
99 2 0.554377 0.440416 0.174219
100 1 0.168626 0.306569 0.215197
101 2 0.168883 0.304908 0.181917
102 2 0.177703 0.314502 0.22671
103 1 0.273205 0.387205 0.654317
104 2 0.273278 0.405526 0.682163
105 2 0.278307 0.358997 0.659428
106 1 0.230302 0.248628 0.620281
107 2 0.235625 0.274758 0.609626
108 2 0.226611 0.232119 0.594067
109 1 0.240036 0.358296 0.469242
110 2 0.241629 0.387641 0.454348
111 2 0.231523 0.345027 0.457846
112 1 0.225167 0.935352 0.424687
113 2 0.231247 0.923276 0.401138
114 2 0.228834 0.927855 0.454778
115 1 0.54534 0.740299 0.753171
116 2 0.550534 0.7448 0.725044
117 2 0.544528 0.707675 0.759452
118 1 0.272532 0.763087 0.358119
119 2 0.274498 0.79305 0.371172
120 2 0.265045 0.765741 0.336181
121 1 0.00946749 0.661923 0.524555
122 2 0.0131804 0.649031 0.496417
123 2 0.0114193 0.694598 0.525608
124 1 0.112326 0.417525 0.392539
125 2 0.112915 0.427879 0.424162
126 2 0.12002 0.39731 0.385853
127 1 0.79728 0.630115 0.769302
128 2 0.790314 0.646963 0.786277
129 2 0.806322 0.63728 0.781602
130 1 0.56766 0.469233 0.16216
131 2 0.575314 0.457739 0.180275
132 2 0.570769 0.494651 0.143249
133 1 0.214821 0.400494 0.804749
134 2 0.217505 0.399726 0.83685
135 2 0.214902 0.369536 0.792396
136 1 0.301066 0.338216 0.578748
137 2 0.29608 0.35429 0.554739
138 2 0.296381 0.34254 0.607878
139 1 0.377025 0.822657 0.988811
140 2 0.376007 0.811405 0.957619
141 2 0.383009 0.802147 1.00591
142 1 0.249436 0.798831 0.191359
143 2 0.253334 0.770902 0.178624
144 2 0.239949 0.793289 0.200324
145 1 0.327477 0.303468 0.599734
146 2 0.33261 0.309703 0.571814
147 2 0.318423 0.317461 0.597629
148 1 0.352598 0.0156415 0.354184
149 2 0.361557 0.00334196 0.362423
150 2 0.349668 0.00256715 0.325119
151 1 0.832424 0.421835 0.566291
152 2 0.836503 0.421312 0.53586
153 2 0.824621 0.44268 0.566483
154 1 0.414572 0.732497 0.274246
155 2 0.420416 0.733059 0.301289
156 2 0.416729 0.75862 0.254829
157 1 0.727965 0.947563 0.239547
158 2 0.724838 0.942022 0.208373
159 2 0.736582 0.931452 0.244688
160 1 0.699709 0.377578 0.690183
161 2 0.698039 0.399184 0.714948
162 2 0.692224 0.355512 0.688873
163 1 0.589148 0.445224 0.219078
164 2 0.582883 0.421058 0.228615
165 2 0.594024 0.457006 0.245689
166 1 0.444028 0.168647 0.580198
167 2 0.444309 0.164658 0.613279
168 2 0.437992 0.145691 0.566806
169 1 0.00122245 0.574317 0.373035
170 2 0.00450777 0.558113 0.346042
171 2 0.991564 0.581996 0.369084
172 1 0.141013 0.399119 0.379684
173 2 0.142713 0.388247 0.348687
174 2 0.149316 0.395597 0.397926
175 1 0.622651 0.329545 0.472134
176 2 0.630245 0.343185 0.455272
177 2 0.62617 0.306157 0.492787
178 1 0.402213 0.655839 0.365108
179 2 0.395137 0.637677 0.380111
180 2 0.398162 0.672908 0.339861
181 1 0.287557 0.06584 0.778658
182 2 0.284638 0.0971441 0.77262
183 2 0.29372 0.0557226 0.754434
184 1 0.826492 0.500357 0.495351
185 2 0.831975 0.50461 0.522902
186 2 0.830891 0.477807 0.475664
187 1 0.828434 0.402254 0.374172
188 2 0.820359 0.382676 0.372345
189 2 0.826136 0.432737 0.363072
190 1 0.306748 0.0824897 0.708634
191 2 0.307486 0.106152 0.685285
192 2 0.315905 0.0731124 0.718206
193 1 0.821434 0.489835 0.344419
194 2 0.82969 0.50413 0.332197
195 2 0.814099 0.51243 0.346096
196 1 0.316217 0.597974 0.851277
197 2 0.323829 0.617949 0.843011
198 2 0.307778 0.615795 0.8528
199 1 0.218004 0.295026 0.781321
200 2 0.210585 0.272774 0.783412
201 2 0.219624 0.302662 0.749326
202 1 0.200894 0.481601 0.806867
203 2 0.207382 0.460025 0.793526
204 2 0.202421 0.511884 0.793901
205 1 0.574847 0.386994 0.258178
206 2 0.575299 0.354146 0.263643
207 2 0.565338 0.397132 0.260099
208 1 0.752178 0.0365163 0.615556
209 2 0.751819 0.0613 0.593297
210 2 0.742924 0.029567 0.626112
211 1 0.559795 0.760921 0.68528
212 2 0.563418 0.766372 0.654693
213 2 0.561869 0.787059 0.704776
214 1 0.236621 0.70393 0.279555
215 2 0.236478 0.676588 0.298616
216 2 0.236908 0.695067 0.247436
217 1 0.308445 0.513738 0.822277
218 2 0.303892 0.499425 0.848274
219 2 0.312584 0.542509 0.831926
220 1 0.803649 0.548028 0.722101
221 2 0.808649 0.558312 0.695127
222 2 0.797709 0.572551 0.732944
223 1 0.146182 0.364694 0.29385
224 2 0.136707 0.371237 0.285438
225 2 0.150185 0.343822 0.271547
226 1 0.252775 0.77442 0.291621
227 2 0.248516 0.744347 0.289346
228 2 0.250317 0.792622 0.264924
229 1 0.813056 0.609036 0.659954
230 2 0.813907 0.613429 0.627034
231 2 0.811191 0.638337 0.674579
232 1 0.567383 0.825533 0.840997
233 2 0.557595 0.831551 0.844216
234 2 0.568719 0.795603 0.827015
235 1 0.269446 0.659346 0.367499
236 2 0.271546 0.691877 0.365543
237 2 0.275243 0.645197 0.390684
238 1 0.0842408 0.482665 0.227832
239 2 0.0887103 0.478862 0.257408
240 2 0.0743217 0.483182 0.232032
241 1 0.00193158 0.624321 0.603005
242 2 0.998825 0.592994 0.59826
243 2 0.00448938 0.637761 0.573717
244 1 0.354082 0.213569 0.984611
245 2 0.349782 0.183648 0.987826
246 2 0.362691 0.21402 0.00156343
247 1 0.356527 0.884129 0.945852
248 2 0.356816 0.91347 0.961641
249 2 0.360296 0.860439 0.965652
250 1 0.851044 0.343527 0.378065
251 2 0.851055 0.331966 0.346801
252 2 0.844594 0.368882 0.380511
253 1 0.219503 0.309344 0.446004
254 2 0.223196 0.286347 0.42525
255 2 0.209706 0.304166 0.450216
256 1 0.573154 0.756995 0.609365
257 2 0.579204 0.745934 0.585237
258 2 0.563869 0.760153 0.5974
259 1 0.457129 0.219436 0.500077
260 2 0.453327 0.200233 0.524197
261 2 0.453984 0.250809 0.504193
262 1 0.991469 0.194536 0.59227
263 2 0.983266 0.179337 0.603782
264 2 0.997937 0.199065 0.617286
265 1 0.71259 0.0461545 0.66976
266 2 0.709656 0.0172454 0.683166
267 2 0.716037 0.0662143 0.693774
268 1 0.599884 0.328291 0.529582
269 2 0.606361 0.338647 0.50639
270 2 0.590859 0.34121 0.523317
271 1 0.827487 0.60505 0.822986
272 2 0.835449 0.608501 0.803119
273 2 0.822903 0.576211 0.816204
274 1 0.85223 0.637143 0.335905
275 2 0.84783 0.652053 0.361862
276 2 0.849623 0.652751 0.307763
277 1 0.840793 0.417665 0.473747
278 2 0.849698 0.402505 0.474169
279 2 0.836313 0.412044 0.444479
280 1 0.425862 0.689988 0.350919
281 2 0.41673 0.679267 0.342573
282 2 0.429427 0.671358 0.375874
283 1 0.339552 0.281837 0.524046
284 2 0.34607 0.263815 0.50632
285 2 0.332308 0.261951 0.535563
286 1 0.0153791 0.51706 0.317071
287 2 0.0242858 0.526947 0.305586
288 2 0.0153647 0.483921 0.320663
289 1 0.257605 0.71881 0.182547
290 2 0.265572 0.711347 0.163832
291 2 0.257127 0.697862 0.208426
292 1 0.103544 0.416461 0.210607
293 2 0.10646 0.408914 0.179628
294 2 0.0969595 0.441528 0.209568
295 1 0.203179 0.447129 0.887434
296 2 0.202067 0.45936 0.856648
297 2 0.195559 0.457205 0.906523
298 1 0.246176 0.627737 0.324267
299 2 0.246229 0.594963 0.330341
300 2 0.254271 0.64172 0.33796
ITEM: TIMESTEP
2400
ITEM: NUMBER OF ATOMS
300
ITEM: BOX BOUNDS pp ff pp
0.0000000000000000e+00 1.0000000000000000e+02
0.0000000000000000e+00 3.0000000000000000e+01
0.0000000000000000e+00 3.0000000000000000e+01
ITEM: ATOMS id type xs ys zs
1 1 0.377679 0.823365 0.894847
2 2 0.379069 0.832307 0.863071
3 2 0.370046 0.840667 0.907663
4 1 0.603508 0.507267 0.154888
5 2 0.613361 0.50165 0.155895
6 2 0.599208 0.494243 0.182017
7 1 0.0408967 0.885059 0.49725
8 2 0.0324383 0.884997 0.515031
9 2 0.0389087 0.875931 0.465883
10 1 0.630366 0.353965 0.57495
11 2 0.631502 0.386413 0.568325
12 2 0.621615 0.349094 0.590325
13 1 0.846474 0.31451 0.460521
14 2 0.854006 0.324073 0.440789
15 2 0.843445 0.284002 0.451661
16 1 0.21385 0.28673 0.703215
17 2 0.207851 0.260626 0.697749
18 2 0.218554 0.294827 0.674937
19 1 0.43409 0.0988474 0.5137
20 2 0.43661 0.123759 0.493206
21 2 0.424274 0.0929887 0.511241
22 1 0.126182 0.390286 0.255082
23 2 0.123806 0.416983 0.273403
24 2 0.118572 0.382817 0.234786
25 1 0.386977 0.697768 0.285632
26 2 0.395446 0.714914 0.290146
27 2 0.38873 0.67185 0.265502
28 1 0.551135 0.390514 0.277987
29 2 0.543825 0.406512 0.294157
30 2 0.549272 0.391003 0.245241
31 1 0.58252 0.567207 0.208373
32 2 0.573741 0.560191 0.222704
33 2 0.581391 0.568075 0.175264
34 1 0.141213 0.719995 0.253074
35 2 0.147039 0.744942 0.263641
36 2 0.133822 0.732287 0.234284
37 1 0.310983 0.264812 0.665846
38 2 0.315973 0.27894 0.691042
39 2 0.313819 0.278759 0.637085
40 1 0.349385 0.096234 0.404971
41 2 0.347919 0.0779923 0.377503
42 2 0.342412 0.0886483 0.427627
43 1 0.0952147 0.434917 0.337478
44 2 0.0915029 0.404034 0.335397
45 2 0.104803 0.433473 0.346832
46 1 0.604129 0.334561 0.606732
47 2 0.600272 0.305823 0.617683
48 2 0.600123 0.342149 0.577148
49 1 0.58781 0.59579 0.318119
50 2 0.591076 0.586501 0.288013
51 2 0.579525 0.614153 0.31477
52 1 0.821042 0.515447 0.774639
53 2 0.820852 0.483611 0.784496
54 2 0.8118 0.525131 0.766374
55 1 0.599243 0.968019 0.0536158
56 2 0.603815 0.941258 0.040859
57 2 0.595375 0.986297 0.0289019
58 1 0.244015 0.315701 0.555856
59 2 0.242606 0.325197 0.524251
60 2 0.251566 0.333112 0.569064
61 1 0.330626 0.297211 0.993364
62 2 0.331077 0.300691 0.960247
63 2 0.337386 0.274702 0.0032036
64 1 0.348293 0.227267 0.449601
65 2 0.353694 0.199266 0.451301
66 2 0.352721 0.248722 0.428794
67 1 0.226856 0.769081 0.214883
68 2 0.228637 0.73628 0.214933
69 2 0.218938 0.775626 0.234158
70 1 0.838258 0.543643 0.302994
71 2 0.845227 0.533576 0.28131
72 2 0.838103 0.576955 0.304055
73 1 0.010431 0.594841 0.441389
74 2 0.00305911 0.577002 0.427639
75 2 0.018996 0.577742 0.439485
76 1 0.843175 0.82825 0.752617
77 2 0.836664 0.834465 0.728094
78 2 0.848372 0.85591 0.759397
79 1 0.346558 0.128248 0.982732
80 2 0.344731 0.0979052 0.995116
81 2 0.340302 0.134319 0.957446
82 1 0.578903 0.524353 0.121019
83 2 0.58847 0.526736 0.13043
84 2 0.578213 0.529484 0.0881636
85 1 0.287854 0.32555 0.691748
86 2 0.287065 0.326827 0.724953
87 2 0.292037 0.296622 0.682811
88 1 0.589021 0.714463 0.542935
89 2 0.593149 0.716892 0.512672
90 2 0.580695 0.696094 0.541079
91 1 0.203694 0.967957 0.407787
92 2 0.212636 0.953262 0.410378
93 2 0.196791 0.945119 0.40004
94 1 0.541878 0.821407 0.825022
95 2 0.542313 0.795131 0.804561
96 2 0.53285 0.822723 0.839297
97 1 0.543235 0.397945 0.182163
98 2 0.536693 0.396369 0.157002
99 2 0.551293 0.415171 0.172524
100 1 0.171338 0.350378 0.241184
101 2 0.165508 0.354408 0.214403
102 2 0.176483 0.378407 0.246788
103 1 0.266823 0.335995 0.618529
104 2 0.265183 0.364262 0.635329
105 2 0.264151 0.309976 0.637365
106 1 0.239686 0.268366 0.628889
107 2 0.238839 0.286418 0.601009
108 2 0.23921 0.235938 0.621336
109 1 0.237094 0.353714 0.471161
110 2 0.235789 0.386721 0.472816
111 2 0.229288 0.339846 0.455609
112 1 0.228486 0.930136 0.386607
113 2 0.23607 0.951627 0.383421
114 2 0.229185 0.906672 0.363046
115 1 0.540977 0.742816 0.756001
116 2 0.547748 0.747268 0.731878
117 2 0.539808 0.710203 0.761689
118 1 0.271848 0.74193 0.352091
119 2 0.279238 0.759606 0.36594
120 2 0.266396 0.761744 0.332388
121 1 0.0150876 0.663184 0.497196
122 2 0.0119511 0.63875 0.477076
123 2 0.0135091 0.692658 0.482543
124 1 0.121368 0.43136 0.358389
125 2 0.117528 0.435139 0.388934
126 2 0.130516 0.418094 0.360684
127 1 0.796521 0.638509 0.799235
128 2 0.795092 0.649891 0.830201
129 2 0.806318 0.637688 0.7926
130 1 0.567172 0.449478 0.1621
131 2 0.575433 0.443022 0.179737
132 2 0.568347 0.478096 0.145463
133 1 0.209833 0.391865 0.805514
134 2 0.212845 0.392801 0.837285
135 2 0.209743 0.360274 0.794882
136 1 0.296502 0.350759 0.594546
137 2 0.28829 0.363886 0.58078
138 2 0.293971 0.333574 0.621834
139 1 0.374173 0.805075 0.987571
140 2 0.376288 0.806059 0.955006
141 2 0.380159 0.782999 1.0026
142 1 0.249118 0.818533 0.203531
143 2 0.249813 0.845785 0.222586
144 2 0.240018 0.805141 0.206937
145 1 0.321922 0.312716 0.59405
146 2 0.326443 0.314421 0.564367
147 2 0.313661 0.331496 0.593624
148 1 0.352555 0.0187571 0.336604
149 2 0.361749 0.0074525 0.34325
150 2 0.349705 0.00806465 0.306495
151 1 0.828752 0.413929 0.566956
152 2 0.834563 0.415507 0.539873
153 2 0.829415 0.442562 0.583878
154 1 0.414769 0.731616 0.289688
155 2 0.420298 0.714303 0.311408
156 2 0.41806 0.763066 0.288398
157 1 0.730473 0.955477 0.238133
158 2 0.724902 0.945843 0.264085
159 2 0.731044 0.930626 0.215998
160 1 0.696073 0.36849 0.696571
161 2 0.687616 0.383507 0.706105
162 2 0.696872 0.339049 0.711973
163 1 0.590997 0.470284 0.222171
164 2 0.58883 0.44368 0.24091
165 2 0.591523 0.497364 0.241529
166 1 0.44196 0.147719 0.593906
167 2 0.440789 0.125043 0.618024
168 2 0.435512 0.141479 0.569205
169 1 0.994973 0.534301 0.384781
170 2 -0.000480134 0.528061 0.355756
171 2 0.988138 0.510703 0.390718
172 1 0.141646 0.382584 0.394132
173 2 0.144959 0.369842 0.365378
174 2 0.144465 0.362904 0.419342
175 1 0.624284 0.315129 0.467406
176 2 0.63279 0.303825 0.454014
177 2 0.626334 0.331826 0.495435
178 1 0.395318 0.668544 0.365943
179 2 0.386996 0.659021 0.38178
180 2 0.392956 0.679989 0.335643
181 1 0.287535 0.0746057 0.786971
182 2 0.282157 0.0484287 0.776748
183 2 0.28867 0.0960265 0.761713
184 1 0.84312 0.543045 0.489469
185 2 0.842254 0.516726 0.50972
186 2 0.852523 0.545088 0.478305
187 1 0.833345 0.390261 0.368796
188 2 0.823755 0.382285 0.363747
189 2 0.834547 0.423121 0.364878
190 1 0.303768 0.105945 0.707572
191 2 0.309936 0.0819888 0.696867
192 2 0.307812 0.135778 0.701291
193 1 0.825515 0.48404 0.364759
194 2 0.831953 0.500063 0.344914
195 2 0.818186 0.504838 0.373795
196 1 0.310322 0.594643 0.866498
197 2 0.306262 0.622908 0.855137
198 2 0.312893 0.598499 0.898479
199 1 0.214677 0.297956 0.793907
200 2 0.20924 0.271373 0.802625
201 2 0.218535 0.293158 0.763531
202 1 0.210391 0.491153 0.811804
203 2 0.210371 0.459748 0.800629
204 2 0.202968 0.508153 0.797319
205 1 0.581876 0.404524 0.276792
206 2 0.57986 0.372454 0.270672
207 2 0.575361 0.41636 0.299137
208 1 0.756062 0.0449132 0.641756
209 2 0.755649 0.0253882 0.614775
210 2 0.747141 0.0451617 0.656819
211 1 0.559984 0.760797 0.6979
212 2 0.561955 0.760651 0.665221
213 2 0.560051 0.792178 0.709138
214 1 0.241806 0.695103 0.269832
215 2 0.243493 0.667971 0.288361
216 2 0.249066 0.698262 0.247126
217 1 0.307447 0.517232 0.81319
218 2 0.314827 0.50655 0.793398
219 2 0.309825 0.547125 0.825625
220 1 0.79876 0.564428 0.739695
221 2 0.799732 0.571831 0.707356
222 2 0.796067 0.591775 0.756508
223 1 0.150297 0.364093 0.303134
224 2 0.142275 0.374774 0.286344
225 2 0.157802 0.358543 0.281815
226 1 0.25401 0.780969 0.284132
227 2 0.245716 0.762414 0.282563
228 2 0.255535 0.795837 0.254735
229 1 0.81576 0.568909 0.651619
230 2 0.818884 0.539698 0.639395
231 2 0.822965 0.582248 0.670498
232 1 0.566927 0.840788 0.853579
233 2 0.55748 0.835445 0.844038
234 2 0.567253 0.867023 0.874113
235 1 0.271266 0.65338 0.371062
236 2 0.271482 0.685778 0.363254
237 2 0.279975 0.644641 0.384914
238 1 0.0827226 0.479155 0.263277
239 2 0.08619 0.466392 0.291819
240 2 0.074452 0.496869 0.269386
241 1 0.00997511 0.618038 0.574119
242 2 1.00426 0.595168 0.559131
243 2 0.0133083 0.639818 0.551463
244 1 0.353182 0.221319 0.98177
245 2 0.350081 0.189815 0.9852
246 2 0.361944 0.225189 0.997361
247 1 0.35563 0.870752 0.951367
248 2 0.353932 0.902623 0.959324
249 2 0.363301 0.859183 0.969355
250 1 0.858023 0.353547 0.383949
251 2 0.863066 0.361768 0.356364
252 2 0.84822 0.357433 0.37862
253 1 0.215889 0.320505 0.421099
254 2 0.219402 0.311155 0.391323
255 2 0.208159 0.301098 0.429498
256 1 0.575591 0.771408 0.611963
257 2 0.579886 0.747162 0.594123
258 2 0.582444 0.794362 0.619859
259 1 0.442666 0.21489 0.516973
260 2 0.451931 0.223603 0.507956
261 2 0.441618 0.21883 0.549887
262 1 0.992955 0.194707 0.596948
263 2 0.985292 0.178843 0.611337
264 2 0.00148107 0.178876 0.604209
265 1 0.718285 0.0501865 0.671797
266 2 0.718553 0.0497372 0.705115
267 2 0.711764 0.0732956 0.661574
268 1 0.593204 0.345392 0.530085
269 2 0.598088 0.34356 0.501057
270 2 0.583421 0.340883 0.524837
271 1 0.825534 0.605468 0.784999
272 2 0.835281 0.610925 0.779907
273 2 0.823446 0.573428 0.778989
274 1 0.836326 0.650812 0.322896
275 2 0.832152 0.669876 0.346435
276 2 0.835219 0.66541 0.293158
277 1 0.842354 0.406499 0.477597
278 2 0.845792 0.375305 0.475012
279 2 0.83596 0.412603 0.452706
280 1 0.418123 0.710184 0.375483
281 2 0.408904 0.698402 0.370197
282 2 0.422251 0.694158 0.401269
283 1 0.338858 0.285189 0.516106
284 2 0.335906 0.269389 0.543758
285 2 0.341878 0.262834 0.493522
286 1 0.00937816 0.531528 0.29013
287 2 0.0168604 0.550524 0.278806
288 2 0.00764746 0.50676 0.268579
289 1 0.260098 0.712579 0.206424
290 2 0.253868 0.725336 0.183684
291 2 0.268698 0.729587 0.206074
292 1 0.101163 0.426361 0.217763
293 2 0.103468 0.446386 0.192247
294 2 0.0950234 0.442347 0.238661
295 1 0.211343 0.439511 0.891635
296 2 0.209055 0.457311 0.864504
297 2 0.218554 0.455048 0.90872
298 1 0.24888 0.616189 0.321651
299 2 0.250761 0.583522 0.323804
300 2 0.256956 0.633328 0.331277
ITEM: TIMESTEP
2500
ITEM: NUMBER OF ATOMS
300
ITEM: BOX BOUNDS pp ff pp
0.0000000000000000e+00 1.0000000000000000e+02
0.0000000000000000e+00 3.0000000000000000e+01
0.0000000000000000e+00 3.0000000000000000e+01
ITEM: ATOMS id type xs ys zs
1 1 0.375801 0.803889 0.901226
2 2 0.378086 0.805823 0.868832
3 2 0.374256 0.834537 0.913277
4 1 0.602627 0.504188 0.144509
5 2 0.611374 0.520102 0.141701
6 2 0.600731 0.498174 0.17668
7 1 0.0391275 0.893732 0.504362
8 2 0.0487305 0.884591 0.502653
9 2 0.0334542 0.866921 0.510251
10 1 0.630631 0.345587 0.584877
11 2 0.638594 0.363109 0.594854
12 2 0.62229 0.360292 0.595908
13 1 0.838831 0.296625 0.444338
14 2 0.848228 0.306549 0.438735
15 2 0.834902 0.2847 0.4161
16 1 0.219827 0.296219 0.70591
17 2 0.22298 0.282465 0.677424
18 2 0.217716 0.328394 0.700779
19 1 0.44634 0.106411 0.486242
20 2 0.438528 0.0913008 0.471933
21 2 0.447777 0.136161 0.471991
22 1 0.130187 0.419826 0.245844
23 2 0.120281 0.423776 0.243547
24 2 0.134691 0.437744 0.222082
25 1 0.390576 0.657787 0.286106
26 2 0.39796 0.637327 0.276796
27 2 0.390687 0.685057 0.26694
28 1 0.560733 0.384853 0.272633
29 2 0.556633 0.359646 0.289632
30 2 0.557305 0.384623 0.24132
31 1 0.579319 0.566189 0.206916
32 2 0.577482 0.55715 0.175422
33 2 0.573246 0.59127 0.215413
34 1 0.143763 0.679694 0.28691
35 2 0.135962 0.664941 0.272167
36 2 0.151952 0.661074 0.282518
37 1 0.309683 0.298485 0.668423
38 2 0.311628 0.329302 0.679349
39 2 0.312995 0.295236 0.637139
40 1 0.34516 0.112055 0.428152
41 2 0.348756 0.0993483 0.399763
42 2 0.349971 0.0984959 0.454038
43 1 0.0989618 0.410796 0.361654
44 2 0.100082 0.378582 0.353945
45 2 0.107618 0.422885 0.37316
46 1 0.601553 0.366173 0.592766
47 2 0.594141 0.383089 0.607414
48 2 0.599659 0.363294 0.560163
49 1 0.58632 0.617626 0.291593
50 2 0.595722 0.613853 0.280888
51 2 0.583094 0.588975 0.304809
52 1 0.813959 0.523019 0.78335
53 2 0.814493 0.502252 0.809362
54 2 0.804508 0.524661 0.772582
55 1 0.601116 0.97174 0.0550018
56 2 0.597072 0.972969 0.0245406
57 2 0.610903 0.965373 0.0524666
58 1 0.236025 0.328532 0.560389
59 2 0.232891 0.337828 0.53013
60 2 0.245958 0.331911 0.562235
61 1 0.326766 0.290031 0.987955
62 2 0.333394 0.274115 0.968726
63 2 0.331283 0.315348 0.00355735
64 1 0.348477 0.224258 0.435025
65 2 0.34596 0.192269 0.430847
66 2 0.350021 0.238372 0.405269
67 1 0.228902 0.74993 0.215006
68 2 0.236039 0.732954 0.231039
69 2 0.221159 0.75493 0.235497
70 1 0.827076 0.557047 0.326817
71 2 0.830489 0.544501 0.298108
72 2 0.827491 0.590334 0.325719
73 1 0.0144144 0.566768 0.421513
74 2 0.00484391 0.55728 0.42335
75 2 0.0188154 0.551493 0.395772
76 1 0.847916 0.829497 0.724048
77 2 0.851915 0.853416 0.743058
78 2 0.843898 0.805996 0.743526
79 1 0.34675 0.13917 0.966906
80 2 0.341559 0.139515 0.938416
81 2 0.352522 0.111969 0.967892
82 1 0.576039 0.513064 0.11185
83 2 0.585778 0.507639 0.117113
84 2 0.574918 0.534346 0.0864687
85 1 0.283119 0.294571 0.681213
86 2 0.279704 0.283131 0.710379
87 2 0.292927 0.288504 0.678895
88 1 0.579447 0.735015 0.549001
89 2 0.587763 0.739282 0.530988
90 2 0.57681 0.702866 0.54842
91 1 0.200855 0.953721 0.388357
92 2 0.210143 0.965305 0.392656
93 2 0.201173 0.925481 0.37068
94 1 0.542734 0.803661 0.830583
95 2 0.543702 0.771042 0.836642
96 2 0.538819 0.808086 0.800231
97 1 0.54239 0.394637 0.182578
98 2 0.534031 0.403948 0.166828
99 2 0.550142 0.411974 0.170628
100 1 0.170802 0.379925 0.253995
101 2 0.175147 0.361462 0.230322
102 2 0.169599 0.411093 0.242878
103 1 0.2705 0.297941 0.582981
104 2 0.276246 0.293821 0.609948
105 2 0.26119 0.287828 0.589746
106 1 0.23456 0.262519 0.629165
107 2 0.233771 0.290279 0.610902
108 2 0.234308 0.235905 0.609111
109 1 0.233495 0.346287 0.473339
110 2 0.241913 0.354496 0.45733
111 2 0.226663 0.336001 0.451279
112 1 0.229294 0.958504 0.359318
113 2 0.237287 0.939216 0.353911
114 2 0.226356 0.972237 0.330567
115 1 0.538122 0.750724 0.745196
116 2 0.54769 0.755133 0.736569
117 2 0.533402 0.733687 0.721252
118 1 0.272635 0.731341 0.366208
119 2 0.28225 0.735541 0.358061
120 2 0.267292 0.75715 0.354905
121 1 0.0144219 0.644452 0.459567
122 2 0.0161194 0.616968 0.441573
123 2 0.00491278 0.653983 0.455623
124 1 0.124543 0.455716 0.361849
125 2 0.129357 0.467883 0.335286
126 2 0.130066 0.431768 0.375943
127 1 0.801478 0.624111 0.789461
128 2 0.799886 0.653306 0.804647
129 2 0.811246 0.620555 0.783282
130 1 0.564535 0.438739 0.161176
131 2 0.571967 0.416691 0.157813
132 2 0.56748 0.468353 0.149439
133 1 0.215289 0.398386 0.807342
134 2 0.216973 0.402717 0.839913
135 2 0.21512 0.365788 0.800403
136 1 0.29008 0.362516 0.604164
137 2 0.285818 0.346152 0.578836
138 2 0.286616 0.350495 0.63303
139 1 0.373949 0.792194 0.990131
140 2 0.376592 0.787154 0.95838
141 2 0.372498 0.762815 1.00512
142 1 0.248146 0.824365 0.231759
143 2 0.255348 0.802665 0.223769
144 2 0.2393 0.812516 0.221695
145 1 0.320158 0.296251 0.579836
146 2 0.328178 0.300651 0.560416
147 2 0.313002 0.31777 0.570947
148 1 0.353484 0.0631266 0.360696
149 2 0.361848 0.0670392 0.342849
150 2 0.348305 0.0372141 0.348797
151 1 0.828478 0.42919 0.559474
152 2 0.829953 0.460713 0.549818
153 2 0.833242 0.408582 0.538637
154 1 0.41362 0.752356 0.297982
155 2 0.407538 0.739809 0.321276
156 2 0.420762 0.770542 0.312599
157 1 0.732186 0.962008 0.236883
158 2 0.739522 0.94506 0.251914
159 2 0.723538 0.956198 0.252583
160 1 0.695304 0.374302 0.717433
161 2 0.701823 0.353393 0.731632
162 2 0.698931 0.384701 0.688162
163 1 0.594519 0.495514 0.235826
164 2 0.589206 0.476017 0.256255
165 2 0.589243 0.522886 0.228574
166 1 0.438989 0.119873 0.583954
167 2 0.445845 0.116621 0.608001
168 2 0.443213 0.113822 0.554353
169 1 0.993674 0.513414 0.383366
170 2 0.996825 0.521336 0.352739
171 2 0.995286 0.480989 0.388916
172 1 0.139512 0.382772 0.384451
173 2 0.144268 0.377031 0.355697
174 2 0.138827 0.354366 0.401743
175 1 0.617367 0.283466 0.50087
176 2 0.625853 0.279685 0.483642
177 2 0.619265 0.280304 0.533445
178 1 0.385375 0.671693 0.369405
179 2 0.376017 0.659983 0.370378
180 2 0.388805 0.670261 0.338127
181 1 0.288398 0.0562537 0.7859
182 2 0.288807 0.0245026 0.775844
183 2 0.290469 0.0763484 0.760215
184 1 0.862881 0.548633 0.485167
185 2 0.869705 0.542576 0.461566
186 2 0.853837 0.539698 0.474097
187 1 0.842503 0.402937 0.337733
188 2 0.836714 0.383058 0.319197
189 2 0.837445 0.430596 0.345601
190 1 0.29925 0.123995 0.732121
191 2 0.307984 0.137792 0.740672
192 2 0.296951 0.132691 0.700868
193 1 0.829814 0.473476 0.370513
194 2 0.827828 0.50571 0.365198
195 2 0.824504 0.462653 0.396602
196 1 0.305507 0.586722 0.885408
197 2 0.311948 0.607041 0.870006
198 2 0.307109 0.587778 0.918294
199 1 0.214918 0.306058 0.793456
200 2 0.207055 0.286037 0.798285
201 2 0.21645 0.309982 0.76075
202 1 0.212975 0.486813 0.823171
203 2 0.203642 0.490265 0.811703
204 2 0.216534 0.456954 0.814293
205 1 0.582585 0.43613 0.292384
206 2 0.584908 0.421856 0.321494
207 2 0.574026 0.423243 0.280935
208 1 0.76896 0.044781 0.652791
209 2 0.771442 0.0136942 0.661524
210 2 0.760385 0.053271 0.667689
211 1 0.564531 0.77797 0.727474
212 2 0.56865 0.777257 0.697108
213 2 0.567725 0.804981 0.74385
214 1 0.254725 0.707896 0.248404
215 2 0.257502 0.685761 0.271544
216 2 0.256167 0.69493 0.218074
217 1 0.308377 0.530352 0.805798
218 2 0.301522 0.535728 0.782133
219 2 0.304841 0.540754 0.835192
220 1 0.789464 0.556655 0.74437
221 2 0.792644 0.561538 0.713146
222 2 0.792235 0.582419 0.763396
223 1 0.146504 0.370854 0.301172
224 2 0.138543 0.381234 0.283876
225 2 0.154708 0.373686 0.282326
226 1 0.252945 0.782703 0.319547
227 2 0.249917 0.752779 0.308882
228 2 0.253776 0.803404 0.293567
229 1 0.810034 0.560492 0.676152
230 2 0.816829 0.545465 0.656859
231 2 0.814652 0.57613 0.701243
232 1 0.566065 0.860205 0.852462
233 2 0.557274 0.84499 0.847882
234 2 0.570185 0.84954 0.880901
235 1 0.270524 0.637587 0.364152
236 2 0.269485 0.669498 0.373142
237 2 0.276479 0.622001 0.385927
238 1 0.0897974 0.464597 0.286136
239 2 0.0938262 0.440984 0.305453
240 2 0.0834111 0.482887 0.304121
241 1 0.0190675 0.617058 0.547969
242 2 0.0282252 0.627398 0.556476
243 2 0.0164348 0.630992 0.518988
244 1 0.354049 0.231192 0.987557
245 2 0.349423 0.201807 0.990699
246 2 0.363554 0.2262 0.97849
247 1 0.358031 0.865883 0.950137
248 2 0.351399 0.885065 0.966091
249 2 0.360157 0.839204 0.968821
250 1 0.857478 0.342261 0.394399
251 2 0.866733 0.341209 0.381814
252 2 0.852206 0.365882 0.37877
253 1 0.21233 0.339144 0.401023
254 2 0.202865 0.332429 0.392616
255 2 0.218451 0.328768 0.376792
256 1 0.578048 0.782728 0.635176
257 2 0.574655 0.780481 0.603902
258 2 0.586334 0.764339 0.63835
259 1 0.431856 0.205765 0.54699
260 2 0.428692 0.234848 0.559404
261 2 0.430962 0.182038 0.570211
262 1 0.994788 0.194019 0.602071
263 2 0.987012 0.180082 0.617726
264 2 -0.000214415 0.170616 0.585163
265 1 0.716071 0.0488971 0.686247
266 2 0.712331 0.068963 0.709766
267 2 0.713035 0.0593186 0.656245
268 1 0.595313 0.345514 0.505111
269 2 0.601164 0.318487 0.505647
270 2 0.591531 0.349512 0.474515
271 1 0.831348 0.590563 0.772752
272 2 0.840345 0.578045 0.78017
273 2 0.824652 0.565846 0.771357
274 1 0.820427 0.654084 0.306644
275 2 0.825219 0.683066 0.310647
276 2 0.813652 0.657113 0.282315
277 1 0.839587 0.370418 0.490878
278 2 0.837884 0.340009 0.478461
279 2 0.849152 0.378714 0.485806
280 1 0.406882 0.727663 0.385814
281 2 0.399949 0.703668 0.386962
282 2 0.411073 0.731081 0.415885
283 1 0.339333 0.293493 0.504124
284 2 0.348949 0.302628 0.503612
285 2 0.338105 0.266254 0.485352
286 1 0.001829 0.54051 0.286102
287 2 1.00038 0.573056 0.280762
288 2 0.000936885 0.523966 0.257318
289 1 0.266594 0.67666 0.170458
290 2 0.262757 0.648241 0.158631
291 2 0.270065 0.695014 0.145154
292 1 0.104764 0.430385 0.221773
293 2 0.101151 0.435526 0.191119
294 2 0.0984444 0.443097 0.244262
295 1 0.219232 0.433711 0.895363
296 2 0.224977 0.456614 0.880537
297 2 0.212627 0.44885 0.91529
298 1 0.253847 0.624977 0.296577
299 2 0.246917 0.601023 0.298535
300 2 0.258838 0.62675 0.325406
ITEM: TIMESTEP
2600
ITEM: NUMBER OF ATOMS
300
ITEM: BOX BOUNDS pp ff pp
0.0000000000000000e+00 1.0000000000000000e+02
0.0000000000000000e+00 3.0000000000000000e+01
0.0000000000000000e+00 3.0000000000000000e+01
ITEM: ATOMS id type xs ys zs
1 1 0.37508 0.794625 0.896548
2 2 0.372705 0.787777 0.864901
3 2 0.36806 0.814288 0.909849
4 1 0.601031 0.486746 0.139306
5 2 0.610673 0.493583 0.133704
6 2 0.598957 0.491504 0.171565
7 1 0.0354974 0.869685 0.506673
8 2 0.0428783 0.891245 0.500273
9 2 0.035494 0.845661 0.483566
10 1 0.622571 0.340017 0.595173
11 2 0.629431 0.364238 0.593935
12 2 0.613712 0.353033 0.603531
13 1 0.8334 0.297534 0.442917
14 2 0.84107 0.311508 0.426726
15 2 0.827802 0.280228 0.42139
16 1 0.231079 0.285599 0.700426
17 2 0.227379 0.282244 0.66964
18 2 0.241056 0.283575 0.699354
19 1 0.453837 0.10058 0.466929
20 2 0.459892 0.126629 0.461909
21 2 0.456082 0.0763872 0.445254
22 1 0.134568 0.440001 0.219445
23 2 0.137512 0.442677 0.187702
24 2 0.124577 0.439723 0.220792
25 1 0.398845 0.646443 0.309164
26 2 0.403514 0.621249 0.29386
27 2 0.402772 0.675379 0.299037
28 1 0.56891 0.398004 0.272943
29 2 0.573214 0.3685 0.267046
30 2 0.559558 0.397757 0.261137
31 1 0.570123 0.564598 0.21852
32 2 0.567666 0.567534 0.186341
33 2 0.563153 0.546644 0.234301
34 1 0.149116 0.663689 0.322037
35 2 0.149765 0.630878 0.327504
36 2 0.140018 0.671023 0.310309
37 1 0.307388 0.312005 0.675605
38 2 0.312572 0.339298 0.683827
39 2 0.310113 0.301849 0.645183
40 1 0.344422 0.138091 0.449041
41 2 0.347318 0.116715 0.425355
42 2 0.346493 0.125298 0.479037
43 1 0.102076 0.393913 0.37662
44 2 0.110654 0.379528 0.367308
45 2 0.104006 0.418432 0.398266
46 1 0.599384 0.401859 0.570559
47 2 0.601381 0.432603 0.559531
48 2 0.598354 0.381242 0.544592
49 1 0.583979 0.613535 0.285085
50 2 0.576189 0.614469 0.264205
51 2 0.592162 0.624523 0.26939
52 1 0.808896 0.514047 0.815763
53 2 0.803851 0.495127 0.837449
54 2 0.802587 0.526084 0.792875
55 1 0.602168 0.973268 0.0526272
56 2 0.60572 0.990021 0.0263549
57 2 0.604749 0.941161 0.0501274
58 1 0.238776 0.305547 0.536966
59 2 0.233066 0.320416 0.513992
60 2 0.24033 0.273795 0.528244
61 1 0.32612 0.282748 0.00924842
62 2 0.335696 0.279123 0.000348754
63 2 0.321292 0.253883 0.00490044
64 1 0.341888 0.221672 0.431459
65 2 0.343721 0.190108 0.44026
66 2 0.338024 0.222341 0.400722
67 1 0.234843 0.749803 0.223532
68 2 0.242369 0.728442 0.218487
69 2 0.226559 0.738161 0.20893
70 1 0.817171 0.552138 0.351505
71 2 0.814347 0.57583 0.33003
72 2 0.820641 0.566345 0.379353
73 1 0.0158095 0.557724 0.398771
74 2 0.0121445 0.552428 0.368212
75 2 0.0110807 0.538071 0.420598
76 1 0.847688 0.807053 0.701495
77 2 0.844852 0.792718 0.730066
78 2 0.841599 0.797293 0.676921
79 1 0.344557 0.151722 0.939628
80 2 0.348745 0.122142 0.933208
81 2 0.336407 0.155529 0.920693
82 1 0.577509 0.49752 0.0969486
83 2 0.585753 0.500023 0.115652
84 2 0.57896 0.513217 0.0679427
85 1 0.281691 0.300544 0.695966
86 2 0.280061 0.322958 0.720033
87 2 0.29117 0.30282 0.685593
88 1 0.571172 0.766571 0.568223
89 2 0.572303 0.789215 0.544053
90 2 0.561439 0.762545 0.574716
91 1 0.199386 0.942073 0.358403
92 2 0.209187 0.93886 0.352622
93 2 0.195236 0.960302 0.334165
94 1 0.544879 0.795342 0.844712
95 2 0.535608 0.788356 0.855063
96 2 0.545667 0.788542 0.812186
97 1 0.545311 0.397908 0.199525
98 2 0.537635 0.398078 0.178162
99 2 0.552564 0.417793 0.188066
100 1 0.168279 0.390134 0.2514
101 2 0.174103 0.416404 0.244762
102 2 0.165136 0.376555 0.222816
103 1 0.271073 0.323538 0.597986
104 2 0.273594 0.316764 0.629524
105 2 0.261353 0.331237 0.596529
106 1 0.224335 0.264603 0.608222
107 2 0.231751 0.281218 0.593254
108 2 0.217625 0.255056 0.585427
109 1 0.230603 0.352926 0.455849
110 2 0.236517 0.379377 0.45106
111 2 0.223825 0.351333 0.431391
112 1 0.226716 0.9562 0.332131
113 2 0.232789 0.93829 0.35164
114 2 0.232078 0.978751 0.315305
115 1 0.542149 0.766397 0.7449
116 2 0.55107 0.771302 0.730658
117 2 0.535924 0.752522 0.722807
118 1 0.274522 0.725601 0.390336
119 2 0.273448 0.75174 0.410709
120 2 0.273207 0.735422 0.358785
121 1 0.0165846 0.634339 0.446176
122 2 0.0183386 0.604764 0.431954
123 2 0.00861681 0.648499 0.43185
124 1 0.12312 0.466501 0.396761
125 2 0.128692 0.483025 0.374554
126 2 0.126014 0.434611 0.397777
127 1 0.799775 0.640175 0.778276
128 2 0.797565 0.670697 0.789466
129 2 0.807165 0.642187 0.755908
130 1 0.566834 0.446323 0.169197
131 2 0.573882 0.447437 0.19282
132 2 0.570002 0.462843 0.142239
133 1 0.224161 0.405439 0.825165
134 2 0.227572 0.402828 0.856389
135 2 0.22449 0.375571 0.810407
136 1 0.294894 0.359225 0.571953
137 2 0.297392 0.343366 0.54384
138 2 0.285938 0.34859 0.582286
139 1 0.374142 0.789133 0.995606
140 2 0.379495 0.784793 0.967787
141 2 0.374692 0.761652 0.0143821
142 1 0.243812 0.831503 0.267925
143 2 0.247393 0.85478 0.247266
144 2 0.235899 0.816693 0.253923
145 1 0.319686 0.311979 0.592521
146 2 0.32491 0.306419 0.564647
147 2 0.313651 0.338174 0.588016
148 1 0.359975 0.092633 0.376917
149 2 0.367609 0.113345 0.371027
150 2 0.360793 0.0658227 0.357298
151 1 0.830466 0.442068 0.531942
152 2 0.837654 0.456007 0.51343
153 2 0.830179 0.409278 0.52602
154 1 0.408113 0.734236 0.308386
155 2 0.404252 0.746512 0.336577
156 2 0.417851 0.728049 0.312763
157 1 0.733385 0.967527 0.23938
158 2 0.737985 0.953863 0.213126
159 2 0.739869 0.986493 0.256239
160 1 0.701559 0.367624 0.735764
161 2 0.694087 0.37488 0.756694
162 2 0.709988 0.38197 0.746532
163 1 0.593329 0.514052 0.218181
164 2 0.592728 0.487617 0.238388
165 2 0.586493 0.53666 0.227169
166 1 0.432886 0.110946 0.544233
167 2 0.426049 0.0883612 0.55327
168 2 0.437324 0.101126 0.516023
169 1 0.994948 0.48588 0.366854
170 2 0.991945 0.499498 0.338123
171 2 0.988621 0.461583 0.375574
172 1 0.13324 0.383972 0.379158
173 2 0.13478 0.398981 0.349842
174 2 0.139638 0.358575 0.382523
175 1 0.617659 0.250778 0.530096
176 2 0.619484 0.220824 0.543396
177 2 0.61707 0.273527 0.554381
178 1 0.382143 0.666698 0.376444
179 2 0.378247 0.637149 0.38477
180 2 0.38754 0.663471 0.348566
181 1 0.291481 0.0580674 0.7956
182 2 0.287359 0.0277023 0.796129
183 2 0.291748 0.069313 0.764233
184 1 0.879279 0.54415 0.469302
185 2 0.872145 0.532303 0.449168
186 2 0.878699 0.528965 0.498913
187 1 0.853318 0.423757 0.334086
188 2 0.855868 0.422473 0.30188
189 2 0.847859 0.451116 0.339692
190 1 0.2892 0.124442 0.733105
191 2 0.284194 0.135632 0.759703
192 2 0.289277 0.147934 0.709458
193 1 0.834753 0.482658 0.360751
194 2 0.8291 0.509179 0.353493
195 2 0.829499 0.461383 0.379507
196 1 0.305956 0.58198 0.862794
197 2 0.305909 0.598959 0.891478
198 2 0.314872 0.567472 0.858633
199 1 0.222624 0.312232 0.787677
200 2 0.219361 0.281258 0.793455
201 2 0.223153 0.317436 0.7548
202 1 0.209533 0.482513 0.823188
203 2 0.20514 0.491021 0.794478
204 2 0.213928 0.452763 0.8198
205 1 0.584181 0.463915 0.282929
206 2 0.582712 0.468766 0.315542
207 2 0.578468 0.438631 0.272475
208 1 0.777407 0.0434594 0.669183
209 2 0.773834 0.0177662 0.686765
210 2 0.771748 0.0703853 0.67469
211 1 0.566061 0.803804 0.721304
212 2 0.571447 0.800523 0.69341
213 2 0.572202 0.808301 0.747225
214 1 0.256614 0.691387 0.233837
215 2 0.258538 0.658997 0.238407
216 2 0.260129 0.70095 0.204132
217 1 0.307296 0.528372 0.786198
218 2 0.300997 0.503264 0.792514
219 2 0.30325 0.55702 0.796617
220 1 0.792901 0.5567 0.758731
221 2 0.795297 0.560424 0.726583
222 2 0.79396 0.585852 0.774504
223 1 0.143392 0.399322 0.289249
224 2 0.138579 0.41214 0.262992
225 2 0.153055 0.395253 0.28169
226 1 0.261051 0.753579 0.309257
227 2 0.260928 0.723012 0.295966
228 2 0.254011 0.772307 0.294775
229 1 0.81186 0.575824 0.671583
230 2 0.81304 0.554644 0.646146
231 2 0.81896 0.570301 0.694399
232 1 0.560717 0.867348 0.865639
233 2 0.55503 0.840421 0.86048
234 2 0.561554 0.872862 0.898395
235 1 0.264992 0.64414 0.369641
236 2 0.266735 0.675346 0.379817
237 2 0.266935 0.622946 0.39454
238 1 0.092165 0.437788 0.30454
239 2 0.0947065 0.418451 0.330336
240 2 0.0824477 0.445402 0.306528
241 1 0.028851 0.636951 0.527057
242 2 0.038095 0.649453 0.524745
243 2 0.0243469 0.63884 0.497356
244 1 0.351549 0.233848 0.976636
245 2 0.347157 0.206347 0.96478
246 2 0.359851 0.240125 0.959146
247 1 0.359189 0.850161 0.944602
248 2 0.354165 0.873275 0.961819
249 2 0.367009 0.839669 0.962533
250 1 0.851998 0.339449 0.371862
251 2 0.859377 0.326994 0.353127
252 2 0.85112 0.372142 0.366055
253 1 0.215936 0.360136 0.381951
254 2 0.207584 0.343517 0.389676
255 2 0.213538 0.389781 0.368974
256 1 0.581308 0.769465 0.650746
257 2 0.579424 0.773606 0.618272
258 2 0.590895 0.760935 0.654885
259 1 0.427787 0.195333 0.599732
260 2 0.433803 0.2214 0.594311
261 2 0.431744 0.168078 0.585796
262 1 0.996751 0.192067 0.606461
263 2 0.988761 0.184552 0.625043
264 2 0.995588 0.179427 0.575862
265 1 0.717542 0.0631397 0.695931
266 2 0.714621 0.0508238 0.725335
267 2 0.71381 0.0938225 0.692068
268 1 0.596451 0.344597 0.480346
269 2 0.597589 0.311988 0.486128
270 2 0.603532 0.354952 0.45921
271 1 0.82791 0.548461 0.757356
272 2 0.83608 0.529893 0.762341
273 2 0.820587 0.538015 0.777507
274 1 0.807267 0.62842 0.306834
275 2 0.81408 0.643866 0.287947
276 2 0.800111 0.650053 0.315452
277 1 0.833378 0.342741 0.518571
278 2 0.829745 0.322421 0.495086
279 2 0.834188 0.326114 0.547335
280 1 0.392706 0.754806 0.384001
281 2 0.387515 0.726606 0.379953
282 2 0.390651 0.767851 0.413902
283 1 0.33201 0.292294 0.518437
284 2 0.340492 0.274675 0.517359
285 2 0.327327 0.290058 0.489069
286 1 0.992925 0.54492 0.280371
287 2 8.95401e-05 0.536131 0.258841
288 2 0.985728 0.561481 0.264204
289 1 0.269965 0.664975 0.157386
290 2 0.279754 0.658609 0.159816
291 2 0.265774 0.643433 0.136128
292 1 0.109368 0.440252 0.2273
293 2 0.102444 0.427989 0.206609
294 2 0.106053 0.438292 0.258687
295 1 0.220644 0.414651 0.933139
296 2 0.213787 0.426524 0.91198
297 2 0.223606 0.439006 0.953644
298 1 0.260897 0.60525 0.280542
299 2 0.253842 0.584177 0.291222
300 2 0.262599 0.628333 0.30391
ITEM: TIMESTEP
2700
ITEM: NUMBER OF ATOMS
300
ITEM: BOX BOUNDS pp ff pp
0.0000000000000000e+00 1.0000000000000000e+02
0.0000000000000000e+00 3.0000000000000000e+01
0.0000000000000000e+00 3.0000000000000000e+01
ITEM: ATOMS id type xs ys zs
1 1 0.3755 0.782578 0.89346
2 2 0.369377 0.80141 0.911899
3 2 0.377763 0.79869 0.865271
4 1 0.602467 0.490696 0.127272
5 2 0.612212 0.491423 0.119832
6 2 0.601192 0.498912 0.159297
7 1 0.0318331 0.835339 0.501443
8 2 0.0365265 0.806505 0.507356
9 2 0.0219648 0.830087 0.500228
10 1 0.609658 0.343026 0.596116
11 2 0.618095 0.357593 0.606504
12 2 0.604725 0.363784 0.575871
13 1 0.829925 0.341504 0.437098
14 2 0.83654 0.336542 0.412596
15 2 0.825258 0.370594 0.432323
16 1 0.23793 0.270893 0.689778
17 2 0.231973 0.284929 0.666978
18 2 0.23689 0.23776 0.688646
19 1 0.457276 0.102162 0.485508
20 2 0.464088 0.0783585 0.490881
21 2 0.461897 0.130566 0.47732
22 1 0.13161 0.444768 0.21599
23 2 0.133374 0.450711 0.183722
24 2 0.121772 0.446292 0.221773
25 1 0.404229 0.640687 0.338118
26 2 0.409543 0.631227 0.311511
27 2 0.4044 0.673923 0.340598
28 1 0.575493 0.390981 0.291374
29 2 0.580476 0.366068 0.276725
30 2 0.565921 0.390229 0.28176
31 1 0.555501 0.56366 0.20618
32 2 0.546649 0.57322 0.193971
33 2 0.559515 0.540628 0.186141
34 1 0.149538 0.622017 0.350756
35 2 0.141796 0.606835 0.336108
36 2 0.14906 0.654789 0.344879
37 1 0.308873 0.310486 0.691192
38 2 0.317298 0.317365 0.707776
39 2 0.310335 0.315371 0.65858
40 1 0.341116 0.13428 0.455293
41 2 0.349025 0.13242 0.434981
42 2 0.343199 0.118749 0.483959
43 1 0.103157 0.411391 0.38454
44 2 0.112432 0.408226 0.372484
45 2 0.103223 0.432606 0.41025
46 1 0.600771 0.40712 0.531913
47 2 0.601412 0.438895 0.52207
48 2 0.601876 0.387051 0.505554
49 1 0.582471 0.57915 0.275678
50 2 0.574315 0.571587 0.257936
51 2 0.58731 0.604401 0.261071
52 1 0.808432 0.506272 0.807142
53 2 0.809879 0.508501 0.840049
54 2 0.801037 0.52681 0.798108
55 1 0.602835 0.972776 0.0444508
56 2 0.603605 0.93999 0.039011
57 2 0.593268 0.98205 0.0415887
58 1 0.228766 0.269785 0.511576
59 2 0.22674 0.294016 0.489706
60 2 0.234036 0.282325 0.536978
61 1 0.324606 0.284354 0.989066
62 2 0.33413 0.281312 0.998763
63 2 0.319918 0.255158 0.992872
64 1 0.33336 0.229719 0.449062
65 2 0.337081 0.198804 0.450272
66 2 0.325513 0.230395 0.428409
67 1 0.237191 0.75872 0.233997
68 2 0.243162 0.732179 0.230754
69 2 0.228089 0.751349 0.222325
70 1 0.810774 0.535764 0.368952
71 2 0.80294 0.552587 0.356861
72 2 0.816192 0.555834 0.388501
73 1 0.0143795 0.553808 0.369649
74 2 0.0242554 0.554784 0.374793
75 2 0.0116295 0.522629 0.362234
76 1 0.843817 0.76395 0.684704
77 2 0.836608 0.751417 0.665297
78 2 0.847627 0.79126 0.670423
79 1 0.3429 0.180501 0.905547
80 2 0.336186 0.190875 0.883127
81 2 0.351193 0.170487 0.88984
82 1 0.576655 0.469205 0.0981425
83 2 0.585508 0.482416 0.10625
84 2 0.572104 0.488759 0.0758108
85 1 0.281021 0.310902 0.692184
86 2 0.278297 0.312549 0.724214
87 2 0.290748 0.303423 0.690197
88 1 0.564729 0.801043 0.596997
89 2 0.564177 0.82653 0.618401
90 2 0.555839 0.796641 0.582385
91 1 0.202094 0.952203 0.319994
92 2 0.20646 0.923554 0.311134
93 2 0.209114 0.975211 0.325836
94 1 0.543029 0.800531 0.852833
95 2 0.533676 0.793869 0.862575
96 2 0.54391 0.794603 0.820163
97 1 0.552853 0.410211 0.224194
98 2 0.546894 0.395622 0.20175
99 2 0.557735 0.435515 0.209843
100 1 0.172106 0.397618 0.241821
101 2 0.167265 0.373156 0.225937
102 2 0.166469 0.408821 0.266972
103 1 0.274231 0.355266 0.60679
104 2 0.276458 0.342679 0.636749
105 2 0.26573 0.372708 0.608779
106 1 0.224108 0.310306 0.622761
107 2 0.216446 0.289637 0.617136
108 2 0.22345 0.33651 0.602275
109 1 0.231273 0.346406 0.46638
110 2 0.241054 0.348252 0.459705
111 2 0.226127 0.361904 0.442365
112 1 0.230339 0.927449 0.307158
113 2 0.233495 0.895903 0.309456
114 2 0.227652 0.933911 0.275707
115 1 0.548323 0.781957 0.768106
116 2 0.555506 0.793897 0.748222
117 2 0.541915 0.763779 0.750097
118 1 0.268029 0.715437 0.373119
119 2 0.26609 0.747002 0.381662
120 2 0.270706 0.714218 0.341026
121 1 0.0211743 0.609595 0.442484
122 2 0.0151531 0.588943 0.425698
123 2 0.0230306 0.636591 0.423935
124 1 0.121631 0.457309 0.451472
125 2 0.128225 0.482353 0.452365
126 2 0.126142 0.429722 0.440339
127 1 0.798455 0.657444 0.754085
128 2 0.800358 0.689456 0.760877
129 2 0.799083 0.652439 0.721196
130 1 0.568522 0.479392 0.183044
131 2 0.577111 0.488594 0.197423
132 2 0.570294 0.469784 0.151677
133 1 0.221827 0.387282 0.828248
134 2 0.226557 0.401136 0.854144
135 2 0.227 0.360811 0.817612
136 1 0.293215 0.353161 0.545357
137 2 0.297029 0.383974 0.545067
138 2 0.28613 0.351106 0.56879
139 1 0.372732 0.776348 0.987132
140 2 0.373495 0.760821 0.957746
141 2 0.38098 0.770683 1.00511
142 1 0.242774 0.815757 0.306363
143 2 0.248782 0.805084 0.330779
144 2 0.240225 0.790046 0.286924
145 1 0.317714 0.332481 0.609899
146 2 0.326327 0.325 0.594703
147 2 0.310865 0.34075 0.587063
148 1 0.360249 0.115801 0.388739
149 2 0.368283 0.113153 0.369067
150 2 0.352001 0.109458 0.370992
151 1 0.835101 0.428712 0.482085
152 2 0.841859 0.404694 0.476904
153 2 0.828865 0.419388 0.506417
154 1 0.404471 0.725034 0.339067
155 2 0.395667 0.740725 0.340978
156 2 0.411821 0.747525 0.336817
157 1 0.736206 0.973721 0.240407
158 2 0.727092 0.987422 0.241001
159 2 0.741719 0.988462 0.216826
160 1 0.711343 0.366736 0.759251
161 2 0.705157 0.369884 0.733251
162 2 0.720466 0.377346 0.75066
163 1 0.595734 0.520304 0.213153
164 2 0.592769 0.497458 0.235324
165 2 0.595292 0.550589 0.227
166 1 0.430133 0.145573 0.514932
167 2 0.429137 0.162535 0.48643
168 2 0.437395 0.1229 0.511613
169 1 0.999201 0.47394 0.351054
170 2 0.99614 0.482405 0.32047
171 2 0.993977 0.447577 0.361676
172 1 0.130019 0.398894 0.350656
173 2 0.136275 0.40201 0.324839
174 2 0.131089 0.368662 0.364235
175 1 0.608962 0.261328 0.543011
176 2 0.605274 0.23431 0.558177
177 2 0.607304 0.288188 0.561961
178 1 0.380205 0.664511 0.386052
179 2 0.375818 0.637849 0.399705
180 2 0.390041 0.65909 0.383455
181 1 0.286935 0.0642923 0.783979
182 2 0.281659 0.0492701 0.759975
183 2 0.288941 0.0956555 0.774882
184 1 0.893399 0.522176 0.458014
185 2 0.892679 0.491877 0.4717
186 2 0.897468 0.543251 0.47999
187 1 0.859834 0.436045 0.349225
188 2 0.868273 0.453092 0.343834
189 2 0.852257 0.457365 0.353539
190 1 0.291378 0.126049 0.718426
191 2 0.287371 0.118981 0.688715
192 2 0.29094 0.158926 0.723725
193 1 0.836187 0.483219 0.374268
194 2 0.827016 0.491032 0.363528
195 2 0.835758 0.474331 0.406363
196 1 0.307308 0.575787 0.839976
197 2 0.301111 0.563316 0.816979
198 2 0.312502 0.601054 0.826825
199 1 0.236625 0.322419 0.781714
200 2 0.242927 0.297129 0.787206
201 2 0.233209 0.320809 0.750427
202 1 0.20867 0.470678 0.864739
203 2 0.201423 0.490941 0.853923
204 2 0.209375 0.444357 0.844423
205 1 0.589155 0.471002 0.275427
206 2 0.592942 0.477998 0.305475
207 2 0.581798 0.448654 0.278605
208 1 0.782934 0.0396535 0.689571
209 2 0.781871 0.0243506 0.718971
210 2 0.773965 0.0433965 0.675319
211 1 0.565626 0.819031 0.693039
212 2 0.573192 0.797242 0.693549
213 2 0.567465 0.843628 0.714684
214 1 0.259118 0.695056 0.227442
215 2 0.260231 0.669436 0.248441
216 2 0.265572 0.691921 0.202177
217 1 0.301516 0.514133 0.771423
218 2 0.30623 0.508998 0.800368
219 2 0.29715 0.485831 0.761507
220 1 0.789631 0.566488 0.767201
221 2 0.795197 0.564835 0.739559
222 2 0.788289 0.598411 0.775686
223 1 0.148724 0.425376 0.291667
224 2 0.141723 0.427258 0.26794
225 2 0.148815 0.45371 0.309223
226 1 0.268018 0.756407 0.292151
227 2 0.270599 0.731689 0.271507
228 2 0.26463 0.782272 0.274416
229 1 0.811141 0.569835 0.694807
230 2 0.813487 0.560811 0.663687
231 2 0.817764 0.556719 0.71606
232 1 0.556172 0.872013 0.911065
233 2 0.551921 0.845245 0.897144
234 2 0.559736 0.891988 0.887169
235 1 0.264773 0.62809 0.385223
236 2 0.265704 0.661277 0.384949
237 2 0.268731 0.61593 0.413316
238 1 0.0875738 0.409895 0.294694
239 2 0.0933225 0.409897 0.321968
240 2 0.0798988 0.388984 0.299091
241 1 0.0361172 0.672362 0.503429
242 2 0.0365029 0.665845 0.536093
243 2 0.0316523 0.647065 0.487629
244 1 0.347567 0.22318 0.988136
245 2 0.34223 0.214635 0.961271
246 2 0.35714 0.227364 0.979462
247 1 0.358242 0.83895 0.93845
248 2 0.36024 0.86565 0.957262
249 2 0.36097 0.81133 0.954745
250 1 0.847128 0.350521 0.359724
251 2 0.845343 0.333217 0.331863
252 2 0.848989 0.382332 0.351935
253 1 0.221355 0.351114 0.375828
254 2 0.21782 0.378684 0.361263
255 2 0.221387 0.326093 0.353805
256 1 0.585821 0.771164 0.649508
257 2 0.577156 0.779565 0.635145
258 2 0.592895 0.7682 0.626136
259 1 0.431429 0.138188 0.6117
260 2 0.440863 0.128145 0.616336
261 2 0.428965 0.134531 0.579603
262 1 0.998573 0.189115 0.610243
263 2 0.992717 0.192626 0.637035
264 2 0.992988 0.190764 0.582641
265 1 0.721196 0.0830629 0.708594
266 2 0.711612 0.0839039 0.718071
267 2 0.725779 0.110974 0.71853
268 1 0.605223 0.353565 0.464648
269 2 0.597578 0.333152 0.457936
270 2 0.612016 0.351457 0.440275
271 1 0.827729 0.510217 0.745999
272 2 0.835206 0.48873 0.751312
273 2 0.820179 0.503396 0.766765
274 1 0.792703 0.593708 0.313142
275 2 0.785324 0.616206 0.313312
276 2 0.797473 0.594853 0.283869
277 1 0.826442 0.346791 0.53294
278 2 0.828678 0.332423 0.5038
279 2 0.828791 0.326086 0.557862
280 1 0.380378 0.759741 0.364948
281 2 0.380597 0.739974 0.391777
282 2 0.370882 0.765278 0.356086
283 1 0.328047 0.292885 0.529293
284 2 0.332092 0.272753 0.506401
285 2 0.324394 0.320091 0.514373
286 1 0.992004 0.532177 0.277596
287 2 0.997768 0.526687 0.250916
288 2 0.992517 0.564366 0.286085
289 1 0.274341 0.672543 0.161327
290 2 0.274246 0.689471 0.132614
291 2 0.279982 0.645231 0.157916
292 1 0.104274 0.454557 0.235253
293 2 0.0974692 0.477186 0.226061
294 2 0.0997238 0.429353 0.25093
295 1 0.223041 0.421341 0.918518
296 2 0.217233 0.415094 0.944924
297 2 0.218471 0.443208 0.898497
298 1 0.26859 0.622254 0.290241
299 2 0.267845 0.589237 0.294088
300 2 0.26648 0.637363 0.31911
ITEM: TIMESTEP
2800
ITEM: NUMBER OF ATOMS
300
ITEM: BOX BOUNDS pp ff pp
0.0000000000000000e+00 1.0000000000000000e+02
0.0000000000000000e+00 3.0000000000000000e+01
0.0000000000000000e+00 3.0000000000000000e+01
ITEM: ATOMS id type xs ys zs
1 1 0.378715 0.779329 0.891273
2 2 0.370722 0.796092 0.902237
3 2 0.379442 0.782718 0.858201
4 1 0.597699 0.504185 0.140114
5 2 0.60259 0.528069 0.123535
6 2 0.599484 0.507282 0.172765
7 1 0.029671 0.796375 0.505177
8 2 0.0364325 0.813447 0.487522
9 2 0.0287442 0.765687 0.492536
10 1 0.599685 0.361005 0.59599
11 2 0.604727 0.373688 0.62183
12 2 0.601297 0.379755 0.568959
13 1 0.823736 0.359984 0.423069
14 2 0.829375 0.363286 0.395738
15 2 0.814077 0.359776 0.414453
16 1 0.235387 0.294434 0.708161
17 2 0.233809 0.312845 0.680876
18 2 0.229481 0.267547 0.707388
19 1 0.455646 0.119374 0.498962
20 2 0.453032 0.0950112 0.519978
21 2 0.461148 0.106659 0.474203
22 1 0.12739 0.439732 0.233824
23 2 0.126982 0.443216 0.200701
24 2 0.118662 0.449023 0.247178
25 1 0.404219 0.653473 0.384688
26 2 0.401712 0.642809 0.354231
27 2 0.40946 0.681748 0.382155
28 1 0.579733 0.382736 0.284141
29 2 0.57723 0.35143 0.291981
30 2 0.571873 0.398112 0.270422
31 1 0.548372 0.565857 0.220709
32 2 0.540066 0.574475 0.23715
33 2 0.546185 0.560742 0.188587
34 1 0.152366 0.578016 0.362004
35 2 0.152901 0.603039 0.340054
36 2 0.147513 0.588292 0.389277
37 1 0.304347 0.313278 0.706056
38 2 0.310243 0.312997 0.732979
39 2 0.309464 0.325112 0.679976
40 1 0.341806 0.145438 0.456885
41 2 0.348621 0.149875 0.432897
42 2 0.344938 0.121686 0.477815
43 1 0.110312 0.443682 0.367198
44 2 0.117833 0.437235 0.346196
45 2 0.113186 0.436812 0.398377
46 1 0.603742 0.40049 0.518285
47 2 0.605562 0.433145 0.521104
48 2 0.604567 0.391396 0.486334
49 1 0.577473 0.562295 0.228442
50 2 0.567907 0.562427 0.218727
51 2 0.578323 0.578412 0.257482
52 1 0.803485 0.499007 0.800977
53 2 0.796357 0.475685 0.802602
54 2 0.799944 0.525802 0.785047
55 1 0.606989 0.980705 0.0539471
56 2 0.600356 0.955761 0.054122
57 2 0.608404 0.991154 0.0226468
58 1 0.221208 0.291338 0.540702
59 2 0.223647 0.290971 0.508378
60 2 0.211284 0.294035 0.543806
61 1 0.322276 0.276396 0.976313
62 2 0.330172 0.257404 0.968714
63 2 0.315619 0.258311 0.99339
64 1 0.329643 0.223464 0.471359
65 2 0.338538 0.238388 0.474393
66 2 0.330985 0.191117 0.464669
67 1 0.238882 0.732898 0.271038
68 2 0.244288 0.723861 0.244492
69 2 0.23055 0.714519 0.272392
70 1 0.809404 0.538119 0.362706
71 2 0.799853 0.532992 0.354256
72 2 0.812187 0.568645 0.353055
73 1 0.0204188 0.541994 0.372457
74 2 0.0248195 0.535372 0.343267
75 2 0.0166616 0.513868 0.385232
76 1 0.839879 0.729875 0.664413
77 2 0.841641 0.761454 0.655501
78 2 0.848554 0.714575 0.670805
79 1 0.347129 0.21177 0.886393
80 2 0.349293 0.194425 0.858857
81 2 0.341078 0.237131 0.878583
82 1 0.578963 0.450775 0.104703
83 2 0.586022 0.472523 0.113899
84 2 0.581661 0.436089 0.0761617
85 1 0.280403 0.325588 0.668894
86 2 0.273491 0.318546 0.691928
87 2 0.289511 0.320062 0.681497
88 1 0.558445 0.821536 0.610194
89 2 0.556174 0.828472 0.641907
90 2 0.550753 0.829836 0.590579
91 1 0.209949 0.979486 0.279729
92 2 0.209635 0.948263 0.291353
93 2 0.200914 0.988123 0.268352
94 1 0.543888 0.827034 0.85669
95 2 0.534484 0.817689 0.850271
96 2 0.54955 0.821893 0.8297
97 1 0.557668 0.435378 0.231654
98 2 0.555906 0.408445 0.212914
99 2 0.559671 0.461402 0.211923
100 1 0.171585 0.394783 0.271571
101 2 0.170789 0.378968 0.300793
102 2 0.16753 0.425147 0.274102
103 1 0.277317 0.360421 0.593078
104 2 0.279961 0.342441 0.619727
105 2 0.273943 0.390195 0.602988
106 1 0.233029 0.309022 0.617316
107 2 0.242908 0.304613 0.614656
108 2 0.228557 0.29852 0.589411
109 1 0.229958 0.30132 0.451879
110 2 0.235303 0.273389 0.448189
111 2 0.225215 0.308261 0.423367
112 1 0.22408 0.902018 0.305009
113 2 0.229764 0.928483 0.297819
114 2 0.228765 0.87421 0.295319
115 1 0.553373 0.793469 0.767536
116 2 0.557652 0.806018 0.740146
117 2 0.552925 0.760261 0.765064
118 1 0.268463 0.720057 0.375863
119 2 0.258971 0.709614 0.374906
120 2 0.270179 0.740543 0.350198
121 1 0.0230196 0.610538 0.42897
122 2 0.0197531 0.592758 0.402962
123 2 0.0229124 0.591533 0.456352
124 1 0.118754 0.423738 0.452264
125 2 0.113831 0.406831 0.475842
126 2 0.126495 0.439757 0.466002
127 1 0.796891 0.6623 0.73204
128 2 0.79364 0.692504 0.741062
129 2 0.806752 0.663448 0.726628
130 1 0.565752 0.497314 0.169517
131 2 0.572802 0.505038 0.19186
132 2 0.570069 0.485218 0.141989
133 1 0.21909 0.377761 0.832829
134 2 0.214261 0.349117 0.838442
135 2 0.22866 0.371346 0.82559
136 1 0.29734 0.343375 0.536986
137 2 0.294093 0.365016 0.514059
138 2 0.290081 0.337683 0.559192
139 1 0.371837 0.76217 0.980198
140 2 0.37565 0.758822 0.949566
141 2 0.378015 0.74818 0.0023638
142 1 0.238068 0.822606 0.297966
143 2 0.241774 0.817308 0.328469
144 2 0.235181 0.793588 0.284683
145 1 0.318776 0.329191 0.628724
146 2 0.327519 0.31302 0.629105
147 2 0.315993 0.334631 0.597173
148 1 0.357332 0.130549 0.389373
149 2 0.365245 0.11872 0.372774
150 2 0.349118 0.127011 0.370696
151 1 0.833363 0.466966 0.48597
152 2 0.840495 0.449101 0.47091
153 2 0.83014 0.450638 0.512972
154 1 0.402174 0.739392 0.352665
155 2 0.392324 0.743132 0.348283
156 2 0.406937 0.766384 0.341247
157 1 0.738313 0.979129 0.238227
158 2 0.739168 0.988318 0.270142
159 2 0.729327 0.988142 0.226704
160 1 0.720163 0.352532 0.77802
161 2 0.726858 0.370717 0.761218
162 2 0.716148 0.371029 0.802309
163 1 0.600058 0.507726 0.227227
164 2 0.601867 0.481072 0.246314
165 2 0.591935 0.523567 0.2385
166 1 0.430746 0.167676 0.532005
167 2 0.43017 0.196565 0.548523
168 2 0.439159 0.167016 0.513999
169 1 0.00684787 0.464722 0.348257
170 2 0.00367418 0.480844 0.321067
171 2 0.998967 0.453629 0.36552
172 1 0.130917 0.405855 0.328154
173 2 0.140349 0.41621 0.324206
174 2 0.127705 0.391821 0.299879
175 1 0.600759 0.274222 0.548434
176 2 0.609954 0.280901 0.537157
177 2 0.598135 0.297099 0.571045
178 1 0.375343 0.653394 0.396433
179 2 0.37414 0.620852 0.402435
180 2 0.385095 0.660288 0.393815
181 1 0.280015 0.0805387 0.748517
182 2 0.272716 0.0738811 0.726725
183 2 0.287981 0.0924162 0.732238
184 1 0.906771 0.49288 0.4444
185 2 0.903945 0.524099 0.451307
186 2 0.899155 0.472073 0.450196
187 1 0.856464 0.446553 0.367591
188 2 0.862903 0.471868 0.370707
189 2 0.847151 0.458504 0.36546
190 1 0.294936 0.124199 0.693784
191 2 0.289048 0.150807 0.698026
192 2 0.304509 0.133828 0.693718
193 1 0.833408 0.491707 0.399262
194 2 0.824894 0.506459 0.389878
195 2 0.832206 0.478072 0.429414
196 1 0.298848 0.585443 0.823489
197 2 0.300785 0.612048 0.842504
198 2 0.28919 0.585516 0.814841
199 1 0.242185 0.331724 0.791174
200 2 0.251653 0.342423 0.790379
201 2 0.238574 0.330306 0.760122
202 1 0.209561 0.456269 0.869423
203 2 0.202548 0.465546 0.847546
204 2 0.212821 0.425698 0.861778
205 1 0.598069 0.44551 0.290848
206 2 0.603657 0.445192 0.318489
207 2 0.591885 0.419314 0.291038
208 1 0.785578 0.0303636 0.712029
209 2 0.784645 0.0499181 0.685213
210 2 0.77722 0.0125134 0.716054
211 1 0.568698 0.824573 0.703933
212 2 0.574972 0.814559 0.679987
213 2 0.573096 0.848194 0.722325
214 1 0.263484 0.701722 0.227812
215 2 0.262226 0.672655 0.24358
216 2 0.271694 0.700225 0.20884
217 1 0.300766 0.52057 0.754108
218 2 0.300704 0.542376 0.779319
219 2 0.295111 0.532205 0.7292
220 1 0.796313 0.576726 0.755923
221 2 0.801584 0.569434 0.728551
222 2 0.795347 0.609798 0.758575
223 1 0.152032 0.455865 0.297385
224 2 0.144848 0.460106 0.274589
225 2 0.151308 0.479667 0.320596
226 1 0.271144 0.759504 0.292871
227 2 0.267615 0.741789 0.267201
228 2 0.276433 0.785354 0.281379
229 1 0.816858 0.546181 0.686637
230 2 0.814869 0.533526 0.656521
231 2 0.822476 0.524644 0.703861
232 1 0.54732 0.856974 0.944776
233 2 0.548752 0.846064 0.913642
234 2 0.552504 0.837935 0.965991
235 1 0.274344 0.626739 0.383742
236 2 0.274325 0.660013 0.381754
237 2 0.275947 0.617506 0.415323
238 1 0.0927213 0.404918 0.307507
239 2 0.0991411 0.408365 0.332831
240 2 0.0854677 0.383685 0.316205
241 1 0.0322128 0.69391 0.464049
242 2 0.0385392 0.680373 0.48603
243 2 0.0270554 0.669753 0.448817
244 1 0.341718 0.206027 0.982827
245 2 0.343547 0.204576 0.950088
246 2 0.349725 0.195173 -0.000410151
247 1 0.356905 0.828873 0.926056
248 2 0.363066 0.815224 0.948484
249 2 0.35081 0.850467 0.941288
250 1 0.847187 0.361507 0.370699
251 2 0.853558 0.338579 0.382291
252 2 0.851849 0.390908 0.368429
253 1 0.216139 0.345847 0.377209
254 2 0.21712 0.3786 0.38247
255 2 0.20792 0.340185 0.359086
256 1 0.583581 0.787746 0.642713
257 2 0.585939 0.755925 0.648781
258 2 0.577654 0.789395 0.615916
259 1 0.432435 0.0851578 0.581695
260 2 0.426384 0.0811276 0.607927
261 2 0.430761 0.114969 0.567866
262 1 1.00006 0.18627 0.614539
263 2 0.99876 0.198721 0.645154
264 2 0.991207 0.177257 0.601929
265 1 0.726217 0.104085 0.723455
266 2 0.725653 0.100065 0.690418
267 2 0.719118 0.125338 0.733425
268 1 0.609791 0.367616 0.432293
269 2 0.615451 0.340673 0.426886
270 2 0.600378 0.361251 0.423014
271 1 0.82572 0.478536 0.74209
272 2 0.833303 0.462977 0.757259
273 2 0.818405 0.484184 0.764103
274 1 0.783344 0.542435 0.33323
275 2 0.778772 0.51319 0.338095
276 2 0.784132 0.548287 0.30052
277 1 0.82539 0.365151 0.520961
278 2 0.826856 0.371818 0.488669
279 2 0.816158 0.353089 0.525281
280 1 0.375862 0.734267 0.344589
281 2 0.374506 0.717566 0.37308
282 2 0.367009 0.739605 0.330037
283 1 0.322901 0.295529 0.526101
284 2 0.323311 0.265545 0.511603
285 2 0.313785 0.308555 0.521843
286 1 0.999089 0.521438 0.267318
287 2 0.99603 0.513656 0.236552
288 2 0.998 0.554201 0.272271
289 1 0.280958 0.665114 0.14691
290 2 0.282717 0.633606 0.156072
291 2 0.277682 0.66568 0.11542
292 1 0.100299 0.467618 0.248908
293 2 0.0946932 0.495191 0.250188
294 2 0.0973143 0.446345 0.272564
295 1 0.222241 0.413418 0.94243
296 2 0.231263 0.422834 0.931567
297 2 0.215291 0.43408 0.930287
298 1 0.267094 0.632735 0.284263
299 2 0.275554 0.632484 0.302031
300 2 0.259253 0.633935 0.304919
ITEM: TIMESTEP
2900
ITEM: NUMBER OF ATOMS
300
ITEM: BOX BOUNDS pp ff pp
0.0000000000000000e+00 1.0000000000000000e+02
0.0000000000000000e+00 3.0000000000000000e+01
0.0000000000000000e+00 3.0000000000000000e+01
ITEM: ATOMS id type xs ys zs
1 1 0.380911 0.781101 0.886634
2 2 0.372624 0.796745 0.896799
3 2 0.383212 0.791039 0.855755
4 1 0.599301 0.508231 0.136425
5 2 0.608004 0.524174 0.132506
6 2 0.596831 0.507924 0.168724
7 1 0.0286007 0.762207 0.51463
8 2 0.0224267 0.739624 0.527955
9 2 0.0279345 0.761018 0.481392
10 1 0.597749 0.373114 0.592418
11 2 0.599165 0.394132 0.617855
12 2 0.60099 0.387208 0.564208
13 1 0.820398 0.372525 0.4058
14 2 0.829785 0.373466 0.394348
15 2 0.816194 0.343455 0.397458
16 1 0.237939 0.315572 0.705305
17 2 0.243813 0.314801 0.678338
18 2 0.230792 0.292439 0.702403
19 1 0.451029 0.126938 0.51723
20 2 0.445548 0.0996956 0.511299
21 2 0.450319 0.147763 0.49131
22 1 0.131672 0.480269 0.22617
23 2 0.133624 0.476609 0.193684
24 2 0.122463 0.469028 0.232688
25 1 0.400631 0.673946 0.420869
26 2 0.398033 0.691801 0.394086
27 2 0.409883 0.682343 0.430323
28 1 0.585024 0.390892 0.252903
29 2 0.576645 0.380999 0.268176
30 2 0.58292 0.399673 0.22152
31 1 0.549235 0.535816 0.22251
32 2 0.539862 0.52783 0.214077
33 2 0.555614 0.521499 0.201202
34 1 0.157694 0.540654 0.344915
35 2 0.166499 0.55419 0.353056
36 2 0.15231 0.535593 0.372546
37 1 0.299564 0.348062 0.703851
38 2 0.305521 0.357616 0.728863
39 2 0.305142 0.336683 0.678632
40 1 0.342468 0.126115 0.447383
41 2 0.351203 0.128317 0.431306
42 2 0.341745 0.0962343 0.461958
43 1 0.116454 0.428113 0.37847
44 2 0.123379 0.414668 0.358533
45 2 0.11825 0.419158 0.410015
46 1 0.603225 0.413751 0.511418
47 2 0.61055 0.436226 0.514534
48 2 0.604574 0.396274 0.483392
49 1 0.575387 0.55814 0.250339
50 2 0.565654 0.565178 0.247333
51 2 0.580567 0.586474 0.253526
52 1 0.800773 0.504464 0.80181
53 2 0.795684 0.512932 0.829225
54 2 0.805282 0.531444 0.789267
55 1 0.613731 0.978491 0.0729697
56 2 0.623147 0.975257 0.0837168
57 2 0.609198 0.948789 0.0737033
58 1 0.232452 0.316857 0.538926
59 2 0.227679 0.303644 0.512783
60 2 0.226433 0.33857 0.554326
61 1 0.32129 0.259049 0.948899
62 2 0.32431 0.228637 0.958116
63 2 0.317637 0.275222 0.97538
64 1 0.332251 0.209905 0.484381
65 2 0.341345 0.217508 0.472784
66 2 0.330379 0.177631 0.47885
67 1 0.240832 0.715175 0.280369
68 2 0.240446 0.710515 0.247388
69 2 0.246728 0.692019 0.294104
70 1 0.811063 0.552521 0.352071
71 2 0.80179 0.563458 0.346056
72 2 0.816833 0.5584 0.32549
73 1 0.0293012 0.535303 0.3766
74 2 0.036634 0.528187 0.355082
75 2 0.0233906 0.508663 0.380241
76 1 0.832458 0.689059 0.655147
77 2 0.837581 0.694263 0.626997
78 2 0.831836 0.656307 0.66099
79 1 0.349603 0.231435 0.891532
80 2 0.356593 0.246803 0.873312
81 2 0.340839 0.247011 0.887637
82 1 0.577594 0.451653 0.113093
83 2 0.586266 0.46525 0.122614
84 2 0.579376 0.426717 0.091784
85 1 0.27927 0.333622 0.658235
86 2 0.271779 0.332224 0.680273
87 2 0.28794 0.337378 0.674414
88 1 0.552858 0.833314 0.643795
89 2 0.558341 0.834877 0.671627
90 2 0.543759 0.845817 0.649704
91 1 0.21973 0.980218 0.257491
92 2 0.220251 0.949454 0.270206
93 2 0.214427 0.97958 0.229237
94 1 0.543243 0.856536 0.851459
95 2 0.536128 0.875098 0.837174
96 2 0.546825 0.834742 0.829242
97 1 0.555015 0.44229 0.225055
98 2 0.556445 0.470557 0.242065
99 2 0.556706 0.447734 0.192656
100 1 0.165715 0.406819 0.319171
101 2 0.171456 0.402451 0.292231
102 2 0.160398 0.434846 0.315784
103 1 0.273945 0.381724 0.589444
104 2 0.274791 0.371348 0.620996
105 2 0.26556 0.399576 0.586075
106 1 0.253343 0.310651 0.630745
107 2 0.263228 0.313605 0.626671
108 2 0.248841 0.311657 0.600998
109 1 0.216009 0.286997 0.469234
110 2 0.21173 0.258885 0.458401
111 2 0.211305 0.313244 0.455954
112 1 0.219533 0.885543 0.287984
113 2 0.217455 0.875074 0.257104
114 2 0.227629 0.869602 0.299328
115 1 0.553901 0.798798 0.787036
116 2 0.562635 0.811317 0.776698
117 2 0.554559 0.765584 0.788809
118 1 0.268711 0.730206 0.376033
119 2 0.259983 0.724893 0.391412
120 2 0.267194 0.748739 0.348792
121 1 0.0242924 0.612916 0.430815
122 2 0.0265052 0.586583 0.411755
123 2 0.0264187 0.605938 0.46263
124 1 0.114623 0.395183 0.465263
125 2 0.11343 0.419953 0.487212
126 2 0.121028 0.372744 0.477579
127 1 0.79905 0.666496 0.722687
128 2 0.792652 0.687363 0.707826
129 2 0.808429 0.676068 0.716188
130 1 0.563419 0.518019 0.149728
131 2 0.564129 0.546937 0.13332
132 2 0.569016 0.495011 0.134441
133 1 0.213388 0.369791 0.862214
134 2 0.219162 0.380257 0.887336
135 2 0.219144 0.361228 0.836338
136 1 0.298841 0.353647 0.54599
137 2 0.301522 0.368737 0.517644
138 2 0.291502 0.370974 0.560567
139 1 0.367853 0.737457 0.960343
140 2 0.375732 0.74759 0.942496
141 2 0.364498 0.708499 0.948197
142 1 0.236911 0.807134 0.299475
143 2 0.246599 0.814771 0.30262
144 2 0.23567 0.774345 0.303824
145 1 0.309928 0.310099 0.6107
146 2 0.318258 0.300876 0.59473
147 2 0.303383 0.322525 0.588776
148 1 0.362688 0.126255 0.387691
149 2 0.372525 0.131073 0.391255
150 2 0.360125 0.131105 0.355838
151 1 0.830432 0.471327 0.485726
152 2 0.83021 0.472085 0.519043
153 2 0.826241 0.443047 0.474944
154 1 0.398997 0.749448 0.367639
155 2 0.38985 0.744196 0.355232
156 2 0.404211 0.768644 0.34665
157 1 0.739508 0.984512 0.23844
158 2 0.746804 0.962421 0.232827
159 2 0.734129 0.974834 0.264823
160 1 0.729447 0.340471 0.796263
161 2 0.735456 0.364752 0.807232
162 2 0.720323 0.344399 0.809335
163 1 0.594986 0.489393 0.223415
164 2 0.59662 0.460377 0.238892
165 2 0.588361 0.507295 0.24082
166 1 0.4289 0.181914 0.565566
167 2 0.433135 0.211635 0.570905
168 2 0.436016 0.158623 0.563135
169 1 0.0121479 0.474888 0.348455
170 2 0.00984476 0.47595 0.316035
171 2 0.00509403 0.457914 0.36489
172 1 0.135574 0.402837 0.327748
173 2 0.137905 0.424817 0.303924
174 2 0.143964 0.390177 0.340736
175 1 0.592996 0.286268 0.551275
176 2 0.586923 0.297864 0.527466
177 2 0.595686 0.311288 0.571393
178 1 0.373711 0.642311 0.409272
179 2 0.374926 0.610331 0.400786
180 2 0.382231 0.654064 0.422172
181 1 0.277172 0.0879391 0.715364
182 2 0.271891 0.11561 0.721337
183 2 0.283289 0.0931072 0.689507
184 1 0.918724 0.464052 0.423423
185 2 0.911099 0.475309 0.40503
186 2 0.925168 0.488905 0.429088
187 1 0.853441 0.457265 0.37061
188 2 0.86135 0.476024 0.378622
189 2 0.845035 0.473935 0.377548
190 1 0.304466 0.129601 0.664491
191 2 0.314242 0.129817 0.671502
192 2 0.302941 0.143963 0.634842
193 1 0.835575 0.50854 0.405622
194 2 0.826499 0.52151 0.400358
195 2 0.836004 0.495818 0.436399
196 1 0.288306 0.595652 0.831952
197 2 0.286173 0.619626 0.853993
198 2 0.280232 0.576558 0.827236
199 1 0.230139 0.349178 0.790673
200 2 0.237641 0.365745 0.805209
201 2 0.232029 0.345891 0.758105
202 1 0.203511 0.462466 0.86861
203 2 0.196353 0.46353 0.845355
204 2 0.205692 0.4307 0.875624
205 1 0.607931 0.413338 0.306562
206 2 0.616546 0.40393 0.292491
207 2 0.600275 0.402279 0.288192
208 1 0.787064 0.0250404 0.730206
209 2 0.779118 0.00652961 0.722028
210 2 0.784203 0.0497487 0.750447
211 1 0.572551 0.835011 0.706286
212 2 0.577617 0.82165 0.680841
213 2 0.578705 0.853924 0.724524
214 1 0.267318 0.689033 0.240914
215 2 0.265348 0.658299 0.252024
216 2 0.272509 0.687112 0.21249
217 1 0.294375 0.549927 0.754593
218 2 0.292874 0.566664 0.782983
219 2 0.303733 0.555056 0.74402
220 1 0.804307 0.581526 0.757433
221 2 0.810358 0.56929 0.733885
222 2 0.801873 0.612961 0.749876
223 1 0.151506 0.472583 0.284109
224 2 0.144285 0.477354 0.261548
225 2 0.153024 0.500813 0.301096
226 1 0.269789 0.771736 0.294115
227 2 0.264317 0.750651 0.275841
228 2 0.278987 0.773951 0.281225
229 1 0.822052 0.535673 0.699095
230 2 0.817762 0.536737 0.669003
231 2 0.819112 0.508116 0.715085
232 1 0.539701 0.823034 0.946331
233 2 0.541518 0.827514 0.913861
234 2 0.543913 0.847735 0.963763
235 1 0.277848 0.634438 0.365742
236 2 0.276985 0.667065 0.359553
237 2 0.283305 0.629922 0.393309
238 1 0.093561 0.422118 0.326727
239 2 0.1005 0.432091 0.34856
240 2 0.0866907 0.403688 0.342443
241 1 0.0291991 0.704934 0.411108
242 2 0.0263981 0.703213 0.379155
243 2 0.027746 0.675361 0.425706
244 1 0.335724 0.182472 0.961959
245 2 0.34094 0.196504 0.937223
246 2 0.341571 0.179261 0.988809
247 1 0.358065 0.82244 0.911112
248 2 0.348172 0.820672 0.906584
249 2 0.360076 0.823321 0.943753
250 1 0.847235 0.36698 0.385964
251 2 0.854141 0.358454 0.408512
252 2 0.848978 0.398039 0.37535
253 1 0.20906 0.347636 0.403559
254 2 0.214998 0.333708 0.380639
255 2 0.204741 0.374836 0.390754
256 1 0.581894 0.809845 0.628915
257 2 0.587497 0.785358 0.61616
258 2 0.57294 0.809937 0.614073
259 1 0.431721 0.0573339 0.52407
260 2 0.422978 0.0461735 0.512355
261 2 0.431014 0.0621257 0.556973
262 1 0.00127676 0.183529 0.618726
263 2 0.00440395 0.201336 0.644906
264 2 0.992677 0.168316 0.626341
265 1 0.731934 0.124032 0.732844
266 2 0.731433 0.157323 0.732781
267 2 0.726827 0.112102 0.7589
268 1 0.609821 0.384939 0.431675
269 2 0.611724 0.354006 0.420996
270 2 0.612029 0.406745 0.407562
271 1 0.816446 0.458033 0.741666
272 2 0.824755 0.443457 0.753134
273 2 0.811167 0.470137 0.767258
274 1 0.773838 0.484208 0.345122
275 2 0.76701 0.463672 0.358214
276 2 0.781627 0.466442 0.334103
277 1 0.821776 0.387483 0.494042
278 2 0.821113 0.370122 0.465672
279 2 0.828599 0.373408 0.513936
280 1 0.373235 0.705767 0.343068
281 2 0.369198 0.68473 0.365145
282 2 0.366041 0.718254 0.323572
283 1 0.32624 0.290486 0.530351
284 2 0.328085 0.261975 0.514214
285 2 0.316636 0.298849 0.526325
286 1 0.00330863 0.497594 0.249162
287 2 -0.000384219 0.479731 0.223854
288 2 0.00725434 0.525887 0.237429
289 1 0.275935 0.667195 0.154825
290 2 0.27631 0.634273 0.159891
291 2 0.276619 0.673506 0.122174
292 1 0.105488 0.473772 0.251702
293 2 0.0993381 0.500036 0.250696
294 2 0.101954 0.451303 0.273322
295 1 0.228889 0.402774 0.940436
296 2 0.227006 0.411701 0.971932
297 2 0.238744 0.398909 0.936318
298 1 0.266029 0.599509 0.286027
299 2 0.268775 0.608296 0.316851
300 2 0.261488 0.569825 0.286969
ITEM: TIMESTEP
3000
ITEM: NUMBER OF ATOMS
300
ITEM: BOX BOUNDS pp ff pp
0.0000000000000000e+00 1.0000000000000000e+02
0.0000000000000000e+00 3.0000000000000000e+01
0.0000000000000000e+00 3.0000000000000000e+01
ITEM: ATOMS id type xs ys zs
1 1 0.384632 0.777224 0.880365
2 2 0.377048 0.793883 0.894309
3 2 0.382335 0.769803 0.848784
4 1 0.601111 0.481254 0.130116
5 2 0.609927 0.495726 0.123955
6 2 0.597918 0.490179 0.160418
7 1 0.0277393 0.726604 0.503697
8 2 0.0199399 0.738718 0.520681
9 2 0.0255542 0.725997 0.471174
10 1 0.595812 0.383096 0.5615
11 2 0.594469 0.408218 0.582946
12 2 0.600484 0.394374 0.534271
13 1 0.82023 0.363295 0.380626
14 2 0.829912 0.371601 0.379793
15 2 0.816744 0.360737 0.349488
16 1 0.235748 0.312451 0.710807
17 2 0.239133 0.310015 0.679537
18 2 0.237896 0.284451 0.727416
19 1 0.447612 0.117964 0.542753
20 2 0.445219 0.0904911 0.525644
21 2 0.456112 0.130726 0.530694
22 1 0.137145 0.509493 0.222297
23 2 0.135033 0.531612 0.198374
24 2 0.128727 0.500944 0.238129
25 1 0.39529 0.697707 0.458355
26 2 0.397597 0.712778 0.429635
27 2 0.403019 0.700046 0.479376
28 1 0.591492 0.409083 0.244782
29 2 0.58172 0.402431 0.247198
30 2 0.59334 0.423983 0.215608
31 1 0.552295 0.514064 0.216296
32 2 0.5432 0.52739 0.212505
33 2 0.557763 0.51998 0.189021
34 1 0.156942 0.542295 0.327918
35 2 0.159506 0.527401 0.356488
36 2 0.147401 0.552138 0.329601
37 1 0.299341 0.360101 0.674546
38 2 0.305421 0.386234 0.678711
39 2 0.301897 0.343746 0.646778
40 1 0.338692 0.148103 0.460887
41 2 0.345418 0.136893 0.438913
42 2 0.329821 0.133987 0.454773
43 1 0.11141 0.39901 0.404628
44 2 0.119789 0.390275 0.388668
45 2 0.111855 0.388448 0.436209
46 1 0.60752 0.432608 0.497985
47 2 0.61492 0.454659 0.502039
48 2 0.605423 0.429598 0.465532
49 1 0.571369 0.520846 0.282244
50 2 0.562711 0.521526 0.26558
51 2 0.570836 0.541454 0.308384
52 1 0.800665 0.506828 0.801172
53 2 0.799281 0.516089 0.832859
54 2 0.80065 0.533806 0.781593
55 1 0.616764 0.96434 0.0797416
56 2 0.624386 0.973625 0.0992228
57 2 0.611427 0.991184 0.0711367
58 1 0.243022 0.353327 0.527723
59 2 0.233318 0.360325 0.523748
60 2 0.24615 0.334241 0.50246
61 1 0.322726 0.250705 0.953157
62 2 0.326418 0.220164 0.958337
63 2 0.314411 0.254727 0.971233
64 1 0.336041 0.237271 0.480859
65 2 0.342194 0.260494 0.468565
66 2 0.339693 0.206988 0.474085
67 1 0.240376 0.714389 0.284574
68 2 0.232519 0.696128 0.294157
69 2 0.248702 0.696068 0.286861
70 1 0.811513 0.541372 0.361695
71 2 0.803132 0.527654 0.373632
72 2 0.809824 0.553143 0.331022
73 1 0.0347518 0.531322 0.388811
74 2 0.0427592 0.518304 0.373672
75 2 0.0264384 0.518475 0.375464
76 1 0.819456 0.647965 0.663372
77 2 0.809817 0.640638 0.65836
78 2 0.82518 0.625087 0.648414
79 1 0.345444 0.243466 0.889897
80 2 0.351964 0.261129 0.907973
81 2 0.336219 0.248024 0.90193
82 1 0.576117 0.462872 0.105891
83 2 0.585831 0.470489 0.108053
84 2 0.575056 0.433808 0.0899564
85 1 0.271426 0.362268 0.675959
86 2 0.26509 0.347951 0.697411
87 2 0.28082 0.35451 0.684343
88 1 0.548421 0.84163 0.671583
89 2 0.552621 0.83422 0.700912
90 2 0.539844 0.857978 0.676734
91 1 0.223187 0.967754 0.255745
92 2 0.223451 0.935146 0.248886
93 2 0.214203 0.97572 0.268031
94 1 0.546465 0.877991 0.869101
95 2 0.55111 0.907387 0.871779
96 2 0.551827 0.857755 0.849555
97 1 0.560508 0.426254 0.250024
98 2 0.550771 0.432684 0.254086
99 2 0.565712 0.454601 0.252594
100 1 0.16162 0.415325 0.329083
101 2 0.170809 0.402351 0.326935
102 2 0.159956 0.435116 0.30284
103 1 0.272543 0.402065 0.590003
104 2 0.273691 0.399582 0.623023
105 2 0.263448 0.391145 0.58148
106 1 0.246378 0.318499 0.614192
107 2 0.255774 0.32487 0.623649
108 2 0.244719 0.332026 0.584232
109 1 0.213291 0.333934 0.502128
110 2 0.204141 0.328711 0.51452
111 2 0.212927 0.332931 0.468832
112 1 0.223311 0.875755 0.24851
113 2 0.23267 0.864013 0.248702
114 2 0.216879 0.850379 0.251241
115 1 0.556124 0.825002 0.790105
116 2 0.564138 0.824343 0.770179
117 2 0.55102 0.796526 0.786824
118 1 0.277134 0.715438 0.373759
119 2 0.275563 0.724288 0.405467
120 2 0.27539 0.741524 0.353838
121 1 0.0333244 0.619618 0.406697
122 2 0.033603 0.586452 0.40991
123 2 0.0366394 0.633813 0.43476
124 1 0.115453 0.366958 0.489913
125 2 0.112311 0.347748 0.51506
126 2 0.124674 0.378068 0.496473
127 1 0.80467 0.677823 0.750551
128 2 0.79967 0.706184 0.745169
129 2 0.812721 0.67679 0.730807
130 1 0.564512 0.542181 0.141204
131 2 0.570357 0.566723 0.129834
132 2 0.567181 0.513409 0.126917
133 1 0.21732 0.386308 0.847198
134 2 0.222163 0.387472 0.876339
135 2 0.223666 0.377096 0.82314
136 1 0.293439 0.375101 0.554089
137 2 0.295239 0.388696 0.524252
138 2 0.28582 0.391037 0.568656
139 1 0.365186 0.72703 0.938344
140 2 0.374393 0.739475 0.934558
141 2 0.365785 0.696008 0.950375
142 1 0.2389 0.810145 0.284331
143 2 0.240823 0.807503 0.316936
144 2 0.237356 0.779802 0.271526
145 1 0.311435 0.322574 0.598342
146 2 0.315517 0.298176 0.580158
147 2 0.305771 0.341827 0.578746
148 1 0.356999 0.119153 0.395732
149 2 0.365057 0.136776 0.404628
150 2 0.357319 0.11305 0.362979
151 1 0.82787 0.491265 0.482489
152 2 0.821404 0.481891 0.506124
153 2 0.829954 0.465252 0.462838
154 1 0.392725 0.740629 0.374403
155 2 0.382922 0.734814 0.371321
156 2 0.396881 0.742513 0.344142
157 1 0.740999 0.986837 0.240851
158 2 0.737704 0.975821 0.211371
159 2 0.748284 0.966822 0.251845
160 1 0.738515 0.338664 0.813295
161 2 0.745046 0.363687 0.816623
162 2 0.735903 0.327427 0.843445
163 1 0.594215 0.504468 0.219749
164 2 0.600019 0.49309 0.244395
165 2 0.586522 0.521399 0.232667
166 1 0.430278 0.189276 0.588985
167 2 0.42232 0.190206 0.56882
168 2 0.434584 0.159251 0.587085
169 1 0.0125298 0.492259 0.339553
170 2 0.0152817 0.472564 0.314273
171 2 0.0029816 0.501335 0.335584
172 1 0.136394 0.372354 0.37101
173 2 0.139448 0.343418 0.357964
174 2 0.142976 0.396282 0.363446
175 1 0.58467 0.28633 0.558845
176 2 0.59406 0.275021 0.560698
177 2 0.584725 0.31966 0.559303
178 1 0.3776 0.631789 0.415295
179 2 0.383283 0.604372 0.414561
180 2 0.380989 0.652473 0.438867
181 1 0.286455 0.0639986 0.685564
182 2 0.280653 0.0911123 0.686934
183 2 0.296045 0.0732412 0.683613
184 1 0.915161 0.43556 0.406285
185 2 0.913476 0.408359 0.424716
186 2 0.924877 0.437279 0.398596
187 1 0.855729 0.46201 0.366114
188 2 0.864737 0.475816 0.361749
189 2 0.849598 0.484142 0.380383
190 1 0.313888 0.104048 0.649285
191 2 0.319056 0.113501 0.67621
192 2 0.320159 0.0914666 0.626573
193 1 0.836152 0.520154 0.402576
194 2 0.82828 0.533402 0.386859
195 2 0.834285 0.518685 0.435291
196 1 0.277979 0.585586 0.830988
197 2 0.285091 0.567889 0.846348
198 2 0.269042 0.577545 0.843594
199 1 0.23773 0.372159 0.784582
200 2 0.240499 0.401364 0.771426
201 2 0.23729 0.349114 0.760544
202 1 0.203184 0.464551 0.878947
203 2 0.198845 0.440271 0.89662
204 2 0.208777 0.45112 0.854797
205 1 0.607753 0.389085 0.322341
206 2 0.609906 0.356535 0.322556
207 2 0.601248 0.395521 0.297855
208 1 0.786256 0.0259515 0.74837
209 2 0.780282 0.0432292 0.76877
210 2 0.794881 0.0423428 0.744395
211 1 0.576342 0.833509 0.727815
212 2 0.575522 0.833886 0.694596
213 2 0.585647 0.842088 0.73651
214 1 0.263677 0.669909 0.247652
215 2 0.264449 0.639877 0.261885
216 2 0.268616 0.669913 0.218667
217 1 0.28436 0.555302 0.747115
218 2 0.281856 0.57019 0.775747
219 2 0.276099 0.544406 0.731818
220 1 0.807257 0.579877 0.751254
221 2 0.812946 0.563872 0.728998
222 2 0.809903 0.612005 0.752305
223 1 0.1587 0.4757 0.264901
224 2 0.152729 0.488452 0.241398
225 2 0.160934 0.499346 0.287184
226 1 0.2705 0.753169 0.291369
227 2 0.272353 0.724638 0.275279
228 2 0.262323 0.767466 0.278572
229 1 0.822967 0.536345 0.687075
230 2 0.831338 0.524405 0.700859
231 2 0.816131 0.512081 0.685315
232 1 0.535278 0.799274 0.919394
233 2 0.537316 0.822546 0.896517
234 2 0.52896 0.811751 0.942021
235 1 0.277854 0.622851 0.367463
236 2 0.280321 0.655003 0.370594
237 2 0.281216 0.605895 0.393883
238 1 0.102739 0.446574 0.324301
239 2 0.106576 0.429183 0.349699
240 2 0.0927578 0.444752 0.325227
241 1 0.0226628 0.71097 0.397844
242 2 0.0291957 0.730982 0.382468
243 2 0.0249729 0.679174 0.391452
244 1 0.333424 0.17011 0.958108
245 2 0.333926 0.169985 0.924817
246 2 0.336076 0.140169 0.96979
247 1 0.354915 0.809664 0.901362
248 2 0.345888 0.823914 0.899756
249 2 0.354104 0.779549 0.915394
250 1 0.846486 0.38388 0.388003
251 2 0.853671 0.364193 0.400249
252 2 0.850554 0.412161 0.376711
253 1 0.203511 0.341649 0.414112
254 2 0.193656 0.344603 0.409276
255 2 0.206457 0.311042 0.405287
256 1 0.576097 0.830735 0.632751
257 2 0.575975 0.809149 0.607355
258 2 0.568325 0.851538 0.63007
259 1 0.438444 0.0462458 0.482019
260 2 0.430662 0.0567012 0.463882
261 2 0.440839 0.0151387 0.473089
262 1 0.00224902 0.18096 0.623123
263 2 0.00902199 0.200077 0.638485
264 2 0.996801 0.164739 0.645888
265 1 0.738965 0.142825 0.746239
266 2 0.740782 0.170011 0.764552
267 2 0.729769 0.144754 0.733287
268 1 0.600375 0.422048 0.40608
269 2 0.593601 0.397763 0.40946
270 2 0.604875 0.419225 0.376446
271 1 0.810439 0.462993 0.732106
272 2 0.814169 0.43543 0.746135
273 2 0.804223 0.477968 0.753496
274 1 0.774808 0.439314 0.362861
275 2 0.783416 0.456149 0.360731
276 2 0.774713 0.421412 0.390978
277 1 0.821116 0.385166 0.470079
278 2 0.816557 0.378456 0.441181
279 2 0.830283 0.371847 0.469915
280 1 0.367695 0.70096 0.357501
281 2 0.372344 0.682152 0.380242
282 2 0.359048 0.686562 0.348952
283 1 0.317014 0.25108 0.546317
284 2 0.324677 0.245337 0.525687
285 2 0.313348 0.222048 0.557221
286 1 0.00698419 0.468964 0.232601
287 2 0.00482278 0.488295 0.206418
288 2 0.00397395 0.437772 0.226478
289 1 0.27126 0.670209 0.165584
290 2 0.265675 0.693816 0.151189
291 2 0.280031 0.667916 0.149741
292 1 0.109023 0.500758 0.248843
293 2 0.100674 0.51906 0.250132
294 2 0.107859 0.473318 0.267366
295 1 0.232512 0.380216 0.925605
296 2 0.225924 0.382291 0.950596
297 2 0.238215 0.353148 0.929737
298 1 0.268448 0.583312 0.28411
299 2 0.270364 0.598995 0.312822
300 2 0.26782 0.5505 0.2896
ITEM: TIMESTEP
3100
ITEM: NUMBER OF ATOMS
300
ITEM: BOX BOUNDS pp ff pp
0.0000000000000000e+00 1.0000000000000000e+02
0.0000000000000000e+00 3.0000000000000000e+01
0.0000000000000000e+00 3.0000000000000000e+01
ITEM: ATOMS id type xs ys zs
1 1 0.37968 0.776116 0.884317
2 2 0.370934 0.791972 0.887423
3 2 0.380999 0.76707 0.852538
4 1 0.59474 0.454118 0.143672
5 2 0.601224 0.428822 0.14166
6 2 0.595523 0.468611 0.173576
7 1 0.0249905 0.702702 0.4911
8 2 0.0231594 0.735467 0.491675
9 2 0.0216583 0.689833 0.462428
10 1 0.592784 0.393829 0.539807
11 2 0.598594 0.404494 0.564752
12 2 0.597911 0.394953 0.51121
13 1 0.816036 0.369735 0.361237
14 2 0.825774 0.377108 0.359507
15 2 0.813325 0.352884 0.333933
16 1 0.23758 0.307153 0.715584
17 2 0.240005 0.32052 0.686136
18 2 0.239386 0.274374 0.714933
19 1 0.437521 0.0931927 0.554533
20 2 0.440137 0.0833327 0.523908
21 2 0.428964 0.0783312 0.563291
22 1 0.140756 0.514471 0.226326
23 2 0.142522 0.515808 0.193544
24 2 0.131141 0.521545 0.232155
25 1 0.387696 0.705675 0.475471
26 2 0.387795 0.718298 0.444622
27 2 0.392239 0.726841 0.496298
28 1 0.603273 0.410746 0.23848
29 2 0.596768 0.386546 0.245908
30 2 0.598566 0.440154 0.23862
31 1 0.552477 0.51796 0.217863
32 2 0.543099 0.507251 0.213471
33 2 0.556424 0.526232 0.188374
34 1 0.151038 0.556342 0.321866
35 2 0.151442 0.557161 0.28857
36 2 0.141486 0.556946 0.331716
37 1 0.295407 0.364811 0.670621
38 2 0.301287 0.39124 0.675958
39 2 0.299405 0.345736 0.646753
40 1 0.347632 0.178793 0.44294
41 2 0.351895 0.155028 0.424381
42 2 0.337763 0.173597 0.444363
43 1 0.108287 0.396486 0.407837
44 2 0.116758 0.379274 0.403639
45 2 0.102288 0.38007 0.428853
46 1 0.610156 0.434321 0.473039
47 2 0.614394 0.432506 0.442902
48 2 0.602656 0.456359 0.472281
49 1 0.571239 0.506093 0.285345
50 2 0.564507 0.505077 0.260715
51 2 0.569227 0.531839 0.305427
52 1 0.797811 0.477216 0.793007
53 2 0.801897 0.47173 0.822932
54 2 0.794925 0.509059 0.790846
55 1 0.619397 0.955353 0.0843225
56 2 0.616502 0.975322 0.109207
57 2 0.617105 0.923783 0.0918122
58 1 0.240522 0.354986 0.515586
59 2 0.23203 0.371708 0.510086
60 2 0.247985 0.376599 0.520595
61 1 0.322994 0.255438 0.946861
62 2 0.327768 0.232312 0.964834
63 2 0.318378 0.276775 0.967333
64 1 0.337289 0.248272 0.497227
65 2 0.337826 0.267887 0.470335
66 2 0.344184 0.224232 0.494993
67 1 0.236672 0.703266 0.27918
68 2 0.229225 0.684916 0.291759
69 2 0.244155 0.683257 0.269772
70 1 0.809841 0.528052 0.358405
71 2 0.812826 0.540057 0.328943
72 2 0.815827 0.502939 0.36748
73 1 0.0334186 0.538704 0.380945
74 2 0.0316172 0.518034 0.406398
75 2 0.0275477 0.530608 0.355204
76 1 0.811421 0.642663 0.671793
77 2 0.809828 0.643241 0.638891
78 2 0.815773 0.613854 0.680201
79 1 0.338745 0.213535 0.878805
80 2 0.336448 0.221008 0.847236
81 2 0.333817 0.233995 0.899364
82 1 0.57774 0.496196 0.081392
83 2 0.583418 0.479394 0.103085
84 2 0.578565 0.482348 0.0511962
85 1 0.269442 0.372025 0.707371
86 2 0.268179 0.373523 0.740403
87 2 0.278693 0.361352 0.700574
88 1 0.541249 0.860687 0.702123
89 2 0.54593 0.863866 0.731406
90 2 0.535893 0.888165 0.696006
91 1 0.225902 0.95574 0.25619
92 2 0.230696 0.928924 0.244499
93 2 0.216631 0.956571 0.243726
94 1 0.548062 0.866409 0.867762
95 2 0.554229 0.882962 0.888121
96 2 0.551572 0.867854 0.836583
97 1 0.56768 0.400873 0.263865
98 2 0.564995 0.405521 0.232094
99 2 0.566404 0.429225 0.280869
100 1 0.154968 0.411887 0.356538
101 2 0.163553 0.39503 0.359363
102 2 0.154762 0.427784 0.327248
103 1 0.267825 0.394027 0.6116
104 2 0.27014 0.375423 0.63816
105 2 0.266404 0.425608 0.621155
106 1 0.243878 0.339926 0.614673
107 2 0.251014 0.363268 0.615256
108 2 0.242014 0.331178 0.583114
109 1 0.217245 0.395643 0.50677
110 2 0.211847 0.419037 0.522263
111 2 0.211128 0.372504 0.494123
112 1 0.230992 0.866238 0.218277
113 2 0.237273 0.849578 0.238159
114 2 0.231219 0.852945 0.187718
115 1 0.561452 0.853198 0.78765
116 2 0.570524 0.854811 0.773717
117 2 0.561044 0.827027 0.80825
118 1 0.282941 0.724288 0.362794
119 2 0.29026 0.743622 0.350874
120 2 0.276946 0.714947 0.337805
121 1 0.0420561 0.626038 0.377243
122 2 0.0382645 0.597371 0.388628
123 2 0.0517892 0.627625 0.384726
124 1 0.121652 0.343197 0.477883
125 2 0.1233 0.358821 0.506811
126 2 0.127641 0.355921 0.454416
127 1 0.810071 0.66426 0.769684
128 2 0.813012 0.677925 0.798463
129 2 0.816389 0.673143 0.745422
130 1 0.560721 0.543509 0.13279
131 2 0.556816 0.568156 0.11451
132 2 0.566357 0.523996 0.113362
133 1 0.220758 0.418584 0.843694
134 2 0.225212 0.39952 0.866656
135 2 0.223554 0.408632 0.813277
136 1 0.290015 0.356501 0.540999
137 2 0.290155 0.369498 0.510308
138 2 0.281575 0.3655 0.55645
139 1 0.36128 0.700816 0.914461
140 2 0.369783 0.718067 0.91127
141 2 0.361581 0.682895 0.94255
142 1 0.243702 0.792789 0.259003
143 2 0.243529 0.793923 0.292312
144 2 0.2422 0.761433 0.248865
145 1 0.307543 0.320515 0.602202
146 2 0.312929 0.293362 0.595028
147 2 0.303021 0.331488 0.574571
148 1 0.35278 0.0984824 0.400492
149 2 0.360632 0.0780214 0.403206
150 2 0.345713 0.0839812 0.381893
151 1 0.822996 0.496545 0.475855
152 2 0.814025 0.511259 0.476517
153 2 0.821894 0.463707 0.48025
154 1 0.385469 0.743362 0.384047
155 2 0.377316 0.725177 0.377583
156 2 0.38703 0.764826 0.35908
157 1 0.74312 0.986465 0.241679
158 2 0.733674 0.997406 0.241419
159 2 0.747459 0.993545 0.212494
160 1 0.745959 0.320573 0.835182
161 2 0.745135 0.351961 0.824304
162 2 0.75562 0.312089 0.83662
163 1 0.596739 0.50017 0.22954
164 2 0.603567 0.511825 0.250923
165 2 0.587665 0.501978 0.24343
166 1 0.433454 0.183984 0.601975
167 2 0.429229 0.190432 0.57246
168 2 0.44087 0.161995 0.597922
169 1 0.0148264 0.506751 0.314194
170 2 0.0110314 0.486551 0.290891
171 2 0.0102015 0.536276 0.312862
172 1 0.136031 0.366715 0.400337
173 2 0.138529 0.341949 0.379638
174 2 0.142509 0.391864 0.396826
175 1 0.581589 0.307027 0.542012
176 2 0.572301 0.31497 0.532544
177 2 0.586976 0.334858 0.545765
178 1 0.381256 0.629971 0.436881
179 2 0.387623 0.606413 0.447165
180 2 0.38243 0.657342 0.4555
181 1 0.292357 0.104253 0.648505
182 2 0.29005 0.09939 0.616437
183 2 0.301953 0.0963746 0.653579
184 1 0.921486 0.411864 0.389028
185 2 0.925169 0.44094 0.39975
186 2 0.925869 0.403577 0.360235
187 1 0.858042 0.45909 0.363445
188 2 0.866216 0.478285 0.363928
189 2 0.849887 0.478384 0.363223
190 1 0.323191 0.0943622 0.633656
191 2 0.331547 0.110493 0.642322
192 2 0.324529 0.079573 0.604118
193 1 0.83594 0.514019 0.393092
194 2 0.832668 0.545421 0.395553
195 2 0.83426 0.49803 0.4218
196 1 0.276755 0.573517 0.836392
197 2 0.268122 0.589466 0.831038
198 2 0.275222 0.548118 0.857366
199 1 0.232539 0.387614 0.761184
200 2 0.239061 0.41206 0.75479
201 2 0.235491 0.359703 0.745843
202 1 0.201011 0.447598 0.901974
203 2 0.198198 0.478918 0.895474
204 2 0.207761 0.437825 0.879404
205 1 0.60332 0.381975 0.352203
206 2 0.602413 0.348784 0.352819
207 2 0.607133 0.391432 0.322875
208 1 0.783491 0.0376221 0.769382
209 2 0.778258 0.0531547 0.793163
210 2 0.781604 0.0518509 0.739901
211 1 0.583769 0.836654 0.73538
212 2 0.578151 0.84504 0.709109
213 2 0.591869 0.820124 0.724954
214 1 0.261308 0.65281 0.240113
215 2 0.266033 0.629533 0.258034
216 2 0.259808 0.641504 0.209157
217 1 0.283217 0.583567 0.746798
218 2 0.284547 0.582141 0.779805
219 2 0.275559 0.563949 0.73816
220 1 0.806747 0.572165 0.764798
221 2 0.813653 0.567764 0.741097
222 2 0.804203 0.604371 0.766207
223 1 0.157332 0.462719 0.27912
224 2 0.151356 0.472617 0.254293
225 2 0.157656 0.486359 0.302595
226 1 0.267832 0.723144 0.287026
227 2 0.268794 0.700223 0.263036
228 2 0.262551 0.748969 0.275438
229 1 0.823159 0.558726 0.689991
230 2 0.832487 0.555212 0.678499
231 2 0.818415 0.529425 0.688397
232 1 0.532621 0.789423 0.910657
233 2 0.536289 0.818525 0.899948
234 2 0.524981 0.780239 0.891207
235 1 0.282517 0.620916 0.365802
236 2 0.280705 0.65173 0.376986
237 2 0.284248 0.600653 0.391633
238 1 0.119998 0.454091 0.341888
239 2 0.113546 0.429191 0.347243
240 2 0.126072 0.457135 0.368191
241 1 0.0206897 0.684088 0.391389
242 2 0.0184695 0.696378 0.361301
243 2 0.0262317 0.656561 0.387909
244 1 0.335862 0.172653 0.95715
245 2 0.342535 0.182403 0.934319
246 2 0.329404 0.151308 0.943286
247 1 0.353188 0.790716 0.875833
248 2 0.347187 0.799006 0.901176
249 2 0.349797 0.762874 0.861406
250 1 0.842422 0.386109 0.378115
251 2 0.846928 0.362518 0.396254
252 2 0.849038 0.40986 0.370327
253 1 0.200817 0.341594 0.451132
254 2 0.194596 0.346797 0.425556
255 2 0.209413 0.328882 0.439797
256 1 0.567037 0.849873 0.662854
257 2 0.567085 0.824313 0.641459
258 2 0.55792 0.853016 0.676182
259 1 0.439501 0.0702011 0.457859
260 2 0.439235 0.046852 0.434086
261 2 0.437478 0.0999661 0.444454
262 1 0.00324965 0.178441 0.628304
263 2 0.0120234 0.194363 0.626802
264 2 0.00215512 0.164729 0.658467
265 1 0.748741 0.166834 0.760026
266 2 0.746042 0.164141 0.792009
267 2 0.74575 0.196331 0.748125
268 1 0.590667 0.448483 0.401807
269 2 0.585347 0.426951 0.420057
270 2 0.596167 0.431737 0.379568
271 1 0.808913 0.487598 0.711445
272 2 0.802305 0.465055 0.700596
273 2 0.807404 0.493324 0.743895
274 1 0.783456 0.392879 0.385358
275 2 0.79214 0.377272 0.379914
276 2 0.784949 0.425839 0.385365
277 1 0.819551 0.40496 0.45606
278 2 0.828753 0.417917 0.454508
279 2 0.818291 0.383328 0.431049
280 1 0.364711 0.684999 0.378887
281 2 0.36622 0.671358 0.408883
282 2 0.363227 0.66089 0.356406
283 1 0.317498 0.244919 0.564857
284 2 0.324926 0.233603 0.545621
285 2 0.30874 0.239533 0.5497
286 1 0.0108402 0.455878 0.240604
287 2 0.0140558 0.461237 0.209499
288 2 0.00956528 0.423168 0.245411
289 1 0.261753 0.683345 0.154432
290 2 0.264506 0.711145 0.17037
291 2 0.258024 0.691267 0.124534
292 1 0.118095 0.517939 0.274724
293 2 0.108098 0.518761 0.274333
294 2 0.121184 0.495571 0.297191
295 1 0.227082 0.355563 0.912696
296 2 0.217759 0.36741 0.914922
297 2 0.227551 0.32565 0.927321
298 1 0.273208 0.584228 0.291699
299 2 0.276792 0.601607 0.317513
300 2 0.279335 0.558735 0.285063
ITEM: TIMESTEP
3200
ITEM: NUMBER OF ATOMS
300
ITEM: BOX BOUNDS pp ff pp
0.0000000000000000e+00 1.0000000000000000e+02
0.0000000000000000e+00 3.0000000000000000e+01
0.0000000000000000e+00 3.0000000000000000e+01
ITEM: ATOMS id type xs ys zs
1 1 0.376885 0.772011 0.887418
2 2 0.369685 0.769 0.864483
3 2 0.384971 0.785871 0.873541
4 1 0.584225 0.449085 0.17237
5 2 0.578015 0.423831 0.179065
6 2 0.586686 0.464548 0.200738
7 1 0.0209479 0.6691 0.479051
8 2 0.0136706 0.681796 0.498063
9 2 0.0171369 0.659521 0.44976
10 1 0.593525 0.399794 0.516458
11 2 0.588514 0.427037 0.525945
12 2 0.598378 0.406032 0.487988
13 1 0.813025 0.378845 0.335544
14 2 0.820893 0.358467 0.332701
15 2 0.813599 0.402717 0.312359
16 1 0.232021 0.336952 0.694709
17 2 0.237797 0.342042 0.667981
18 2 0.231512 0.304286 0.701124
19 1 0.428941 0.0713802 0.545811
20 2 0.432051 0.0820221 0.515971
21 2 0.430887 0.0388269 0.548865
22 1 0.146924 0.501307 0.209627
23 2 0.140458 0.478513 0.198357
24 2 0.142427 0.520457 0.232424
25 1 0.386007 0.717746 0.488996
26 2 0.38078 0.72519 0.461571
27 2 0.386158 0.744143 0.509345
28 1 0.61105 0.387177 0.247978
29 2 0.601099 0.386631 0.244722
30 2 0.614824 0.411846 0.229423
31 1 0.551252 0.522062 0.201966
32 2 0.541393 0.51857 0.206323
33 2 0.553087 0.531339 0.170539
34 1 0.145385 0.570914 0.315141
35 2 0.145348 0.603713 0.309199
36 2 0.137149 0.557167 0.302162
37 1 0.307158 0.361536 0.69021
38 2 0.311292 0.391449 0.685072
39 2 0.308758 0.342134 0.663634
40 1 0.343415 0.194231 0.422996
41 2 0.35014 0.171537 0.413328
42 2 0.3346 0.179344 0.428115
43 1 0.109035 0.403368 0.385408
44 2 0.11308 0.37434 0.394716
45 2 0.101053 0.409862 0.404409
46 1 0.610418 0.427368 0.446206
47 2 0.610818 0.406562 0.420198
48 2 0.612657 0.45825 0.436122
49 1 0.569568 0.485254 0.261824
50 2 0.563823 0.493401 0.235785
51 2 0.569062 0.509327 0.284819
52 1 0.799439 0.469324 0.778738
53 2 0.794415 0.451071 0.801041
54 2 0.800803 0.500092 0.790727
55 1 0.61875 0.941061 0.0878217
56 2 0.628685 0.938168 0.0853805
57 2 0.61515 0.955113 0.0600793
58 1 0.236868 0.370992 0.534617
59 2 0.242044 0.392747 0.516174
60 2 0.228259 0.384924 0.544285
61 1 0.317093 0.245721 0.937669
62 2 0.323967 0.226708 0.952653
63 2 0.315365 0.272842 0.956173
64 1 0.347943 0.243171 0.499139
65 2 0.356019 0.260827 0.507778
66 2 0.349518 0.228642 0.469602
67 1 0.231765 0.686252 0.2391
68 2 0.222575 0.674919 0.232449
69 2 0.237297 0.661591 0.251861
70 1 0.810449 0.512622 0.376527
71 2 0.812715 0.51857 0.408444
72 2 0.81041 0.479737 0.371083
73 1 0.035118 0.544551 0.369155
74 2 0.0367863 0.534612 0.400482
75 2 0.0268494 0.529825 0.357554
76 1 0.810021 0.666537 0.662086
77 2 0.804187 0.681579 0.639576
78 2 0.810032 0.633668 0.656543
79 1 0.333641 0.186824 0.865682
80 2 0.326577 0.176688 0.844377
81 2 0.332793 0.219677 0.870561
82 1 0.583692 0.519057 0.108589
83 2 0.585378 0.495764 0.131761
84 2 0.591789 0.522269 0.0892915
85 1 0.274902 0.362925 0.694601
86 2 0.270714 0.346057 0.719734
87 2 0.284828 0.359002 0.695611
88 1 0.534957 0.889603 0.717774
89 2 0.534675 0.92257 0.722612
90 2 0.526547 0.875857 0.729453
91 1 0.226983 0.939217 0.243456
92 2 0.228437 0.94196 0.27632
93 2 0.232606 0.914385 0.231494
94 1 0.550535 0.859831 0.869334
95 2 0.553072 0.886729 0.887113
96 2 0.558688 0.847112 0.854818
97 1 0.578177 0.397582 0.268595
98 2 0.57038 0.378855 0.277811
99 2 0.575589 0.429768 0.269485
100 1 0.151297 0.413277 0.38994
101 2 0.15884 0.408177 0.411219
102 2 0.154364 0.433165 0.36522
103 1 0.272684 0.3945 0.607805
104 2 0.274913 0.381432 0.637557
105 2 0.274232 0.427424 0.60853
106 1 0.247723 0.353312 0.617766
107 2 0.256923 0.36523 0.612411
108 2 0.242575 0.353554 0.589191
109 1 0.217085 0.439952 0.514188
110 2 0.217865 0.461738 0.489094
111 2 0.210297 0.416733 0.506445
112 1 0.242851 0.859305 0.200792
113 2 0.242288 0.830077 0.216708
114 2 0.252389 0.869246 0.19953
115 1 0.573053 0.827061 0.821937
116 2 0.575787 0.84365 0.794499
117 2 0.581177 0.8148 0.837016
118 1 0.289918 0.705285 0.341192
119 2 0.296788 0.723534 0.325266
120 2 0.281108 0.708335 0.325716
121 1 0.0410838 0.63995 0.349319
122 2 0.0396524 0.606962 0.348954
123 2 0.0508208 0.646439 0.353266
124 1 0.123308 0.330403 0.480956
125 2 0.122481 0.29842 0.489936
126 2 0.126053 0.332209 0.448954
127 1 0.813673 0.639457 0.761778
128 2 0.807798 0.664752 0.752411
129 2 0.817686 0.625179 0.73479
130 1 0.556236 0.542396 0.115231
131 2 0.553472 0.535171 0.0840222
132 2 0.565241 0.529225 0.121283
133 1 0.224382 0.432032 0.844978
134 2 0.225859 0.408205 0.867762
135 2 0.222885 0.418018 0.815147
136 1 0.284684 0.327931 0.551638
137 2 0.277937 0.305948 0.562687
138 2 0.282367 0.35834 0.562896
139 1 0.362133 0.693973 0.89665
140 2 0.369312 0.715579 0.905119
141 2 0.365735 0.662917 0.898233
142 1 0.24226 0.77459 0.247606
143 2 0.238261 0.781477 0.277371
144 2 0.239327 0.74427 0.237798
145 1 0.306902 0.30489 0.601488
146 2 0.315365 0.289643 0.592383
147 2 0.301681 0.313212 0.574305
148 1 0.357348 0.118515 0.417977
149 2 0.35599 0.0941329 0.395703
150 2 0.356809 0.105899 0.448779
151 1 0.823755 0.506378 0.453763
152 2 0.821176 0.505691 0.485961
153 2 0.825305 0.475264 0.442977
154 1 0.374259 0.747802 0.409002
155 2 0.369931 0.723725 0.39102
156 2 0.372077 0.777484 0.39569
157 1 0.745116 0.985505 0.239465
158 2 0.742767 0.987454 0.271807
159 2 0.73674 0.985551 0.221253
160 1 0.748182 0.280914 0.853999
161 2 0.751978 0.310973 0.847111
162 2 0.740504 0.284202 0.875101
163 1 0.598711 0.499726 0.234988
164 2 0.607552 0.507179 0.248667
165 2 0.591744 0.52066 0.246544
166 1 0.429955 0.166992 0.587812
167 2 0.42276 0.168917 0.610881
168 2 0.432626 0.135138 0.58367
169 1 0.0163985 0.519316 0.312104
170 2 0.0128934 0.492901 0.295466
171 2 0.0159 0.546328 0.292644
172 1 0.129537 0.333776 0.395617
173 2 0.127826 0.317731 0.366961
174 2 0.13595 0.358789 0.390282
175 1 0.576403 0.325539 0.543705
176 2 0.57069 0.323531 0.51642
177 2 0.58491 0.341427 0.536318
178 1 0.380519 0.63071 0.465123
179 2 0.383794 0.608943 0.487885
180 2 0.384227 0.660932 0.471826
181 1 0.299173 0.135805 0.634941
182 2 0.294402 0.142232 0.663522
183 2 0.292961 0.140885 0.609319
184 1 0.918296 0.403229 0.364297
185 2 0.927659 0.411983 0.372058
186 2 0.913437 0.429616 0.351943
187 1 0.850815 0.45505 0.364275
188 2 0.860083 0.457938 0.352098
189 2 0.847885 0.484334 0.376852
190 1 0.330587 0.119907 0.626274
191 2 0.326265 0.14962 0.621727
192 2 0.325804 0.103411 0.650455
193 1 0.843057 0.544047 0.389419
194 2 0.841101 0.576444 0.385054
195 2 0.836448 0.531063 0.410804
196 1 0.269153 0.571493 0.837117
197 2 0.266966 0.540289 0.827939
198 2 0.265997 0.576638 0.868326
199 1 0.222331 0.401224 0.751171
200 2 0.228295 0.427573 0.746521
201 2 0.225517 0.375838 0.732357
202 1 0.201959 0.425228 0.920778
203 2 0.197509 0.453505 0.930343
204 2 0.205271 0.428504 0.889496
205 1 0.598414 0.401395 0.345714
206 2 0.591796 0.397684 0.320999
207 2 0.607564 0.393803 0.334617
208 1 0.778722 0.0473853 0.786829
209 2 0.781184 0.0553135 0.75551
210 2 0.770568 0.0644441 0.79585
211 1 0.582022 0.867302 0.742057
212 2 0.57342 0.870335 0.725333
213 2 0.589267 0.883463 0.725726
214 1 0.257209 0.632759 0.241638
215 2 0.263385 0.608291 0.251057
216 2 0.256116 0.632076 0.208512
217 1 0.277022 0.622491 0.771454
218 2 0.28361 0.644857 0.782793
219 2 0.275733 0.598579 0.794276
220 1 0.809256 0.561229 0.804129
221 2 0.809347 0.591024 0.789186
222 2 0.815464 0.561693 0.830258
223 1 0.156748 0.480845 0.311681
224 2 0.154471 0.472348 0.280355
225 2 0.153208 0.511354 0.318087
226 1 0.266513 0.720023 0.275065
227 2 0.264948 0.687684 0.268894
228 2 0.258128 0.737142 0.269005
229 1 0.817528 0.57919 0.68576
230 2 0.821032 0.567315 0.714633
231 2 0.810634 0.558304 0.67364
232 1 0.533647 0.783009 0.896638
233 2 0.539323 0.800508 0.875496
234 2 0.538046 0.782145 0.926561
235 1 0.285321 0.617256 0.374983
236 2 0.287774 0.6458 0.359832
237 2 0.287975 0.618787 0.407085
238 1 0.127088 0.468988 0.371422
239 2 0.11944 0.450241 0.381899
240 2 0.135698 0.455292 0.381405
241 1 0.0166732 0.667556 0.375496
242 2 0.0108281 0.646994 0.357927
243 2 0.0262574 0.661696 0.368004
244 1 0.335911 0.175673 0.954047
245 2 0.337255 0.169843 0.921535
246 2 0.332647 0.147897 0.96892
247 1 0.34827 0.758205 0.852266
248 2 0.33843 0.756327 0.846634
249 2 0.351295 0.730846 0.868419
250 1 0.841327 0.365011 0.370713
251 2 0.847656 0.344065 0.355639
252 2 0.843543 0.396347 0.36208
253 1 0.204014 0.357437 0.499148
254 2 0.204872 0.339233 0.526925
255 2 0.20857 0.341742 0.473965
256 1 0.559072 0.862038 0.694358
257 2 0.557276 0.829247 0.694175
258 2 0.550467 0.878546 0.698341
259 1 0.437873 0.103038 0.462423
260 2 0.433888 0.132801 0.46941
261 2 0.4478 0.106005 0.459689
262 1 0.00447325 0.175951 0.634165
263 2 0.012237 0.183432 0.614533
264 2 0.00780295 0.167486 0.664435
265 1 0.758426 0.181617 0.791326
266 2 0.762105 0.198438 0.765292
267 2 0.756415 0.202862 0.816121
268 1 0.584194 0.470721 0.389046
269 2 0.576772 0.457606 0.407128
270 2 0.588892 0.44646 0.372392
271 1 0.80661 0.491113 0.690764
272 2 0.804375 0.466216 0.669888
273 2 0.805048 0.481215 0.722165
274 1 0.80054 0.357106 0.416551
275 2 0.804554 0.362113 0.386435
276 2 0.795767 0.327818 0.416909
277 1 0.825173 0.415482 0.436912
278 2 0.823955 0.406407 0.405096
279 2 0.825672 0.388276 0.4561
280 1 0.365488 0.656055 0.389927
281 2 0.368275 0.646546 0.420495
282 2 0.370493 0.638263 0.367207
283 1 0.322613 0.240457 0.55706
284 2 0.331788 0.237177 0.544216
285 2 0.318295 0.210473 0.559279
286 1 0.013885 0.445583 0.252259
287 2 0.0178778 0.451112 0.222203
288 2 0.00788713 0.418949 0.250828
289 1 0.255225 0.659126 0.15367
290 2 0.252772 0.687941 0.168297
291 2 0.254917 0.662792 0.120555
292 1 0.121584 0.51757 0.299213
293 2 0.112709 0.507825 0.287337
294 2 0.123399 0.502037 0.328079
295 1 0.220462 0.348349 0.887749
296 2 0.213595 0.352665 0.911591
297 2 0.227798 0.328818 0.899228
298 1 0.280762 0.594381 0.284802
299 2 0.281096 0.598146 0.317903
300 2 0.289664 0.602124 0.271734
ITEM: TIMESTEP
3300
ITEM: NUMBER OF ATOMS
300
ITEM: BOX BOUNDS pp ff pp
0.0000000000000000e+00 1.0000000000000000e+02
0.0000000000000000e+00 3.0000000000000000e+01
0.0000000000000000e+00 3.0000000000000000e+01
ITEM: ATOMS id type xs ys zs
1 1 0.370664 0.772001 0.880494
2 2 0.363165 0.763697 0.860067
3 2 0.366945 0.781372 0.909984
4 1 0.58707 0.447938 0.185276
5 2 0.577386 0.450282 0.193252
6 2 0.592592 0.462153 0.209157
7 1 0.0139065 0.66104 0.479867
8 2 0.0163778 0.686603 0.499609
9 2 0.0203174 0.659382 0.454338
10 1 0.590081 0.393737 0.494853
11 2 0.583972 0.419307 0.501385
12 2 0.594341 0.398182 0.465026
13 1 0.809919 0.362283 0.348574
14 2 0.817829 0.36128 0.328205
15 2 0.802037 0.374567 0.332141
16 1 0.232169 0.369812 0.679281
17 2 0.239231 0.372722 0.655859
18 2 0.228973 0.338249 0.680464
19 1 0.426517 0.053415 0.526944
20 2 0.434251 0.0741174 0.522717
21 2 0.427564 0.0270715 0.50682
22 1 0.153961 0.495683 0.253069
23 2 0.151243 0.522222 0.271088
24 2 0.145814 0.478601 0.244019
25 1 0.382529 0.73063 0.497717
26 2 0.375709 0.739287 0.47493
27 2 0.38736 0.757851 0.508245
28 1 0.619606 0.373036 0.270681
29 2 0.621025 0.368515 0.237997
30 2 0.619838 0.343547 0.286203
31 1 0.549494 0.525823 0.195419
32 2 0.540815 0.510116 0.190179
33 2 0.552005 0.543075 0.168154
34 1 0.14518 0.552418 0.321305
35 2 0.144644 0.583318 0.33368
36 2 0.136121 0.542838 0.310938
37 1 0.306258 0.326987 0.69796
38 2 0.314483 0.310468 0.707258
39 2 0.304607 0.321987 0.665466
40 1 0.343164 0.205394 0.41753
41 2 0.350221 0.181785 0.416959
42 2 0.335077 0.194615 0.401153
43 1 0.108071 0.398801 0.406735
44 2 0.114111 0.378889 0.389148
45 2 0.109244 0.392626 0.439258
46 1 0.603138 0.411156 0.406717
47 2 0.601925 0.419189 0.37462
48 2 0.612533 0.400895 0.41174
49 1 0.565243 0.477516 0.257741
50 2 0.559595 0.497543 0.238883
51 2 0.566452 0.491188 0.287873
52 1 0.800228 0.492767 0.772246
53 2 0.79223 0.498367 0.791455
54 2 0.808058 0.509661 0.784266
55 1 0.621563 0.938441 0.101037
56 2 0.622494 0.933967 0.133922
57 2 0.628239 0.919429 0.0850884
58 1 0.230073 0.380859 0.542126
59 2 0.220252 0.386456 0.544977
60 2 0.23328 0.392215 0.512666
61 1 0.315169 0.229362 0.936266
62 2 0.32391 0.221673 0.950517
63 2 0.307992 0.229884 0.959472
64 1 0.347169 0.231371 0.507536
65 2 0.356523 0.240098 0.515452
66 2 0.346839 0.221806 0.475623
67 1 0.231063 0.679105 0.197691
68 2 0.222424 0.664308 0.205632
69 2 0.238312 0.667843 0.217698
70 1 0.810477 0.506549 0.366329
71 2 0.810244 0.473247 0.367535
72 2 0.819979 0.516938 0.366504
73 1 0.0356036 0.555244 0.356022
74 2 0.0292275 0.55866 0.381473
75 2 0.0324204 0.530899 0.335877
76 1 0.80883 0.66693 0.665833
77 2 0.812614 0.636723 0.672127
78 2 0.815493 0.690254 0.674427
79 1 0.327739 0.159142 0.877514
80 2 0.327233 0.139813 0.85041
81 2 0.321487 0.18493 0.874088
82 1 0.584087 0.521328 0.13017
83 2 0.586381 0.490345 0.139796
84 2 0.590995 0.542527 0.14164
85 1 0.284231 0.394627 0.695866
86 2 0.281047 0.414876 0.720123
87 2 0.291928 0.376478 0.706976
88 1 0.530456 0.906213 0.748489
89 2 0.524041 0.889617 0.767945
90 2 0.531126 0.937812 0.758864
91 1 0.229945 0.914541 0.206819
92 2 0.232128 0.919375 0.238987
93 2 0.237283 0.897083 0.192396
94 1 0.556932 0.835652 0.868881
95 2 0.558833 0.852584 0.896886
96 2 0.565549 0.825904 0.855055
97 1 0.577798 0.395457 0.272532
98 2 0.574209 0.369999 0.254646
99 2 0.570833 0.419261 0.274883
100 1 0.147035 0.413729 0.379668
101 2 0.146423 0.421904 0.411919
102 2 0.151418 0.438509 0.362828
103 1 0.274181 0.382668 0.605783
104 2 0.277495 0.375788 0.636472
105 2 0.275672 0.414959 0.599167
106 1 0.248949 0.362921 0.606621
107 2 0.258718 0.368603 0.602317
108 2 0.244154 0.367443 0.577722
109 1 0.216801 0.465214 0.506283
110 2 0.217758 0.497066 0.496987
111 2 0.209678 0.462756 0.529548
112 1 0.251518 0.848649 0.217682
113 2 0.245956 0.821441 0.22289
114 2 0.258998 0.841278 0.196823
115 1 0.58028 0.817425 0.824691
116 2 0.57895 0.845348 0.807035
117 2 0.588617 0.802113 0.814474
118 1 0.29607 0.683238 0.326878
119 2 0.303568 0.700169 0.341011
120 2 0.288411 0.703877 0.321099
121 1 0.0408962 0.640744 0.328119
122 2 0.0414192 0.610799 0.342658
123 2 0.0501185 0.651338 0.320779
124 1 0.124352 0.322088 0.468625
125 2 0.122946 0.289096 0.467783
126 2 0.125329 0.333644 0.437528
127 1 0.809234 0.612202 0.754408
128 2 0.801479 0.630517 0.744046
129 2 0.811328 0.588925 0.731592
130 1 0.556254 0.546202 0.108889
131 2 0.550286 0.548641 0.0822526
132 2 0.565764 0.543736 0.0988911
133 1 0.221584 0.420721 0.830489
134 2 0.221508 0.387581 0.83406
135 2 0.219846 0.428505 0.798599
136 1 0.283046 0.311421 0.549231
137 2 0.278453 0.283726 0.559706
138 2 0.277168 0.337779 0.554923
139 1 0.366107 0.681983 0.890343
140 2 0.372004 0.708897 0.88975
141 2 0.37143 0.655076 0.88184
142 1 0.240283 0.761172 0.240425
143 2 0.230804 0.755041 0.249097
144 2 0.2437 0.736172 0.221547
145 1 0.304551 0.299793 0.607374
146 2 0.312547 0.2974 0.587499
147 2 0.296625 0.309324 0.589427
148 1 0.36262 0.141235 0.435196
149 2 0.36266 0.128184 0.465868
150 2 0.368804 0.123826 0.415623
151 1 0.834719 0.531199 0.459027
152 2 0.840251 0.529677 0.486753
153 2 0.830613 0.501381 0.453135
154 1 0.364175 0.739518 0.437048
155 2 0.364365 0.709416 0.422744
156 2 0.355088 0.752936 0.433361
157 1 0.746 0.984349 0.238976
158 2 0.754762 0.973238 0.250576
159 2 0.73854 0.967972 0.253966
160 1 0.750842 0.247641 0.864755
161 2 0.743556 0.261447 0.846571
162 2 0.750772 0.260764 0.895396
163 1 0.599352 0.504127 0.239819
164 2 0.603069 0.510972 0.269997
165 2 0.593208 0.528678 0.230387
166 1 0.420698 0.148929 0.557323
167 2 0.416992 0.15696 0.587224
168 2 0.418285 0.117402 0.550083
169 1 0.0210758 0.495049 0.296116
170 2 0.0192735 0.463662 0.286635
171 2 0.0192267 0.515708 0.270694
172 1 0.130039 0.34862 0.386094
173 2 0.129733 0.329174 0.359039
174 2 0.137564 0.370378 0.3832
175 1 0.574679 0.349194 0.560672
176 2 0.57834 0.323256 0.577684
177 2 0.58123 0.358366 0.53722
178 1 0.378806 0.63627 0.489435
179 2 0.386136 0.618236 0.503175
180 2 0.380112 0.668447 0.49697
181 1 0.305565 0.180245 0.616885
182 2 0.295724 0.183295 0.621975
183 2 0.309296 0.209468 0.606766
184 1 0.910027 0.408903 0.336741
185 2 0.915108 0.389741 0.315361
186 2 0.916449 0.425181 0.356434
187 1 0.850792 0.447354 0.366459
188 2 0.860562 0.446334 0.359419
189 2 0.847241 0.477815 0.359892
190 1 0.334235 0.144714 0.614058
191 2 0.336986 0.170387 0.594877
192 2 0.326139 0.153126 0.631726
193 1 0.842488 0.536487 0.366718
194 2 0.846505 0.564481 0.354546
195 2 0.840779 0.540173 0.399353
196 1 0.256564 0.557948 0.846991
197 2 0.26239 0.532968 0.836502
198 2 0.247922 0.545611 0.858349
199 1 0.22286 0.451041 0.724881
200 2 0.229774 0.470362 0.710508
201 2 0.223231 0.420501 0.711581
202 1 0.210751 0.416686 0.917998
203 2 0.204818 0.441949 0.927044
204 2 0.214021 0.421695 0.886897
205 1 0.59914 0.423999 0.317603
206 2 0.590635 0.418704 0.300892
207 2 0.606728 0.409499 0.301445
208 1 0.769799 0.0714751 0.800881
209 2 0.768606 0.103862 0.807691
210 2 0.778592 0.0611118 0.812903
211 1 0.574596 0.885666 0.765977
212 2 0.567613 0.883884 0.742186
213 2 0.578894 0.915756 0.765273
214 1 0.254896 0.649485 0.250636
215 2 0.25907 0.626602 0.270481
216 2 0.255822 0.639972 0.218839
217 1 0.261724 0.639725 0.797501
218 2 0.266723 0.631039 0.76997
219 2 0.25793 0.612453 0.811902
220 1 0.815176 0.563598 0.828069
221 2 0.809593 0.585706 0.811455
222 2 0.822049 0.579711 0.846143
223 1 0.163672 0.485133 0.339486
224 2 0.165881 0.482525 0.307081
225 2 0.156358 0.507494 0.343574
226 1 0.270184 0.717943 0.281643
227 2 0.264238 0.692194 0.274205
228 2 0.265155 0.746445 0.277433
229 1 0.814862 0.572264 0.675371
230 2 0.824416 0.563792 0.670363
231 2 0.808938 0.546805 0.666822
232 1 0.535141 0.785462 0.884466
233 2 0.543166 0.803967 0.877176
234 2 0.531167 0.773506 0.856312
235 1 0.289603 0.594056 0.347228
236 2 0.289809 0.626056 0.337923
237 2 0.290383 0.592073 0.380401
238 1 0.121299 0.476849 0.378212
239 2 0.114114 0.458654 0.392579
240 2 0.130205 0.463002 0.384385
241 1 0.0199216 0.657836 0.378795
242 2 0.01228 0.673797 0.364388
243 2 0.0270182 0.651879 0.356077
244 1 0.336891 0.173013 0.963009
245 2 0.335422 0.169165 0.930262
246 2 0.336106 0.14345 0.978184
247 1 0.350488 0.737176 0.835829
248 2 0.349125 0.724058 0.805525
249 2 0.355308 0.715256 0.855129
250 1 0.841015 0.360703 0.339682
251 2 0.846433 0.332747 0.337846
252 2 0.846775 0.385634 0.350675
253 1 0.20226 0.382825 0.543277
254 2 0.195585 0.376032 0.56715
255 2 0.198619 0.373284 0.513735
256 1 0.553302 0.876499 0.714154
257 2 0.551139 0.845143 0.70544
258 2 0.545442 0.890013 0.729709
259 1 0.439615 0.129625 0.487923
260 2 0.439177 0.142996 0.457423
261 2 0.432251 0.142102 0.506709
262 1 0.00577019 0.1737 0.639571
263 2 0.0101982 0.170705 0.609834
264 2 0.0126674 0.171778 0.66363
265 1 0.768687 0.160806 0.826263
266 2 0.76056 0.17995 0.822972
267 2 0.773653 0.16962 0.85382
268 1 0.581366 0.498134 0.356335
269 2 0.582217 0.501523 0.389374
270 2 0.588593 0.478006 0.345122
271 1 0.801951 0.487041 0.681484
272 2 0.794691 0.474232 0.662473
273 2 0.800995 0.475696 0.712665
274 1 0.821741 0.352032 0.434454
275 2 0.818735 0.353101 0.40268
276 2 0.821672 0.320452 0.44512
277 1 0.830219 0.445288 0.424949
278 2 0.837356 0.44582 0.401607
279 2 0.827279 0.413849 0.430109
280 1 0.369014 0.648541 0.403332
281 2 0.373481 0.651983 0.432957
282 2 0.375437 0.635043 0.381639
283 1 0.323715 0.258797 0.552365
284 2 0.331712 0.249245 0.53478
285 2 0.316182 0.265766 0.531577
286 1 0.0111684 0.424941 0.257574
287 2 0.00861261 0.430416 0.225816
288 2 0.00985985 0.392705 0.264848
289 1 0.252924 0.634137 0.163847
290 2 0.244087 0.648153 0.157
291 2 0.257236 0.624075 0.135505
292 1 0.120897 0.52651 0.297322
293 2 0.111607 0.529895 0.285463
294 2 0.120609 0.510328 0.326448
295 1 0.225448 0.342005 0.885393
296 2 0.220049 0.363057 0.903943
297 2 0.229955 0.3198 0.905201
298 1 0.27188 0.565713 0.282535
299 2 0.278004 0.572628 0.307965
300 2 0.277285 0.556971 0.255887
ITEM: TIMESTEP
3400
ITEM: NUMBER OF ATOMS
300
ITEM: BOX BOUNDS pp ff pp
0.0000000000000000e+00 1.0000000000000000e+02
0.0000000000000000e+00 3.0000000000000000e+01
0.0000000000000000e+00 3.0000000000000000e+01
ITEM: ATOMS id type xs ys zs
1 1 0.364863 0.776694 0.875709
2 2 0.360041 0.758451 0.852908
3 2 0.358326 0.79618 0.891725
4 1 0.586116 0.473756 0.188603
5 2 0.577303 0.463308 0.200391
6 2 0.591625 0.485834 0.213662
7 1 0.00976666 0.665152 0.473743
8 2 0.0154089 0.682714 0.494933
9 2 0.015441 0.654146 0.448599
10 1 0.57782 0.385796 0.466209
11 2 0.572763 0.413542 0.473762
12 2 0.583353 0.391074 0.438949
13 1 0.813357 0.314899 0.375329
14 2 0.813266 0.323828 0.343215
15 2 0.804137 0.317689 0.387928
16 1 0.229681 0.383084 0.686654
17 2 0.235352 0.39217 0.660747
18 2 0.226071 0.352442 0.681421
19 1 0.42981 0.0677622 0.509039
20 2 0.434885 0.095885 0.503201
21 2 0.435796 0.0457208 0.524111
22 1 0.153659 0.48653 0.247428
23 2 0.155383 0.500484 0.277149
24 2 0.151406 0.454315 0.251544
25 1 0.376418 0.737934 0.506173
26 2 0.368913 0.735352 0.484296
27 2 0.375349 0.765957 0.523869
28 1 0.626843 0.378487 0.290819
29 2 0.626648 0.403568 0.268872
30 2 0.635865 0.377017 0.305123
31 1 0.545274 0.521577 0.210195
32 2 0.543204 0.552623 0.220178
33 2 0.549806 0.522554 0.180496
34 1 0.152609 0.542704 0.325444
35 2 0.155096 0.574988 0.325768
36 2 0.142752 0.539718 0.320685
37 1 0.29384 0.329635 0.68596
38 2 0.292518 0.306539 0.709588
39 2 0.296311 0.314764 0.657287
40 1 0.349624 0.20259 0.426285
41 2 0.35865 0.191181 0.434982
42 2 0.347223 0.190934 0.396098
43 1 0.106368 0.408261 0.435275
44 2 0.114031 0.392107 0.421215
45 2 0.10252 0.389611 0.459744
46 1 0.593817 0.404579 0.393968
47 2 0.594973 0.414399 0.362348
48 2 0.602551 0.393429 0.405765
49 1 0.562545 0.456699 0.244793
50 2 0.557731 0.483049 0.232173
51 2 0.557565 0.445247 0.271334
52 1 0.800102 0.494754 0.773706
53 2 0.808127 0.506501 0.789753
54 2 0.797259 0.465935 0.787517
55 1 0.625328 0.935277 0.124028
56 2 0.631547 0.954703 0.106594
57 2 0.619693 0.954207 0.144027
58 1 0.232988 0.392188 0.519568
59 2 0.239142 0.405795 0.497093
60 2 0.224415 0.409327 0.520338
61 1 0.318573 0.19897 0.9261
62 2 0.326 0.191026 0.946959
63 2 0.310419 0.206974 0.943655
64 1 0.3429 0.223782 0.508605
65 2 0.34903 0.206735 0.528677
66 2 0.345107 0.216909 0.476828
67 1 0.233488 0.672325 0.223917
68 2 0.224692 0.65802 0.230752
69 2 0.240899 0.651527 0.232183
70 1 0.811792 0.500459 0.376295
71 2 0.809721 0.52896 0.392144
72 2 0.81907 0.484331 0.392495
73 1 0.0349717 0.546737 0.336874
74 2 0.0330854 0.543088 0.369405
75 2 0.0317518 0.519823 0.320396
76 1 0.804995 0.650116 0.672477
77 2 0.811833 0.626118 0.668509
78 2 0.799299 0.652035 0.645147
79 1 0.324323 0.119239 0.896407
80 2 0.324048 0.106973 0.865426
81 2 0.321903 0.151576 0.895797
82 1 0.583208 0.518901 0.106701
83 2 0.586301 0.498061 0.130587
84 2 0.591093 0.534715 0.0936514
85 1 0.284614 0.41394 0.675539
86 2 0.286687 0.427705 0.7051
87 2 0.286751 0.381391 0.676501
88 1 0.527035 0.897878 0.797426
89 2 0.528309 0.919215 0.82268
90 2 0.528255 0.866679 0.808436
91 1 0.236772 0.876598 0.179878
92 2 0.235955 0.899786 0.156087
93 2 0.243913 0.854822 0.171496
94 1 0.563224 0.792092 0.887428
95 2 0.568092 0.796126 0.916264
96 2 0.568615 0.805253 0.86263
97 1 0.577225 0.375078 0.271648
98 2 0.574918 0.344827 0.25995
99 2 0.573069 0.398354 0.252223
100 1 0.145785 0.442287 0.399547
101 2 0.146509 0.428272 0.429695
102 2 0.151901 0.468606 0.397867
103 1 0.285894 0.411828 0.585891
104 2 0.285293 0.418181 0.618552
105 2 0.295382 0.415054 0.575865
106 1 0.245512 0.387092 0.60061
107 2 0.254495 0.401471 0.597852
108 2 0.240447 0.391032 0.572138
109 1 0.211827 0.453413 0.510824
110 2 0.206767 0.47069 0.487842
111 2 0.206337 0.451041 0.538584
112 1 0.261747 0.832418 0.219091
113 2 0.255773 0.807405 0.228518
114 2 0.257178 0.861509 0.224819
115 1 0.578178 0.825611 0.819524
116 2 0.574738 0.852858 0.804123
117 2 0.57741 0.799395 0.799097
118 1 0.293952 0.662841 0.321238
119 2 0.296456 0.686764 0.342898
120 2 0.288719 0.676161 0.29615
121 1 0.0422057 0.635374 0.32184
122 2 0.0387921 0.604066 0.323061
123 2 0.0493073 0.637688 0.298486
124 1 0.12479 0.333474 0.451577
125 2 0.119396 0.305748 0.44722
126 2 0.13026 0.339296 0.424286
127 1 0.804575 0.612998 0.76852
128 2 0.807855 0.644364 0.765745
129 2 0.802229 0.601244 0.738324
130 1 0.559302 0.558901 0.124569
131 2 0.555024 0.565987 0.0952854
132 2 0.56734 0.539722 0.119528
133 1 0.220585 0.439482 0.827878
134 2 0.225001 0.40969 0.825252
135 2 0.221413 0.455826 0.798958
136 1 0.277743 0.332973 0.561013
137 2 0.269294 0.33315 0.543183
138 2 0.280334 0.364297 0.568452
139 1 0.36856 0.665349 0.880172
140 2 0.370637 0.697561 0.885226
141 2 0.371398 0.647643 0.906783
142 1 0.246958 0.762583 0.243516
143 2 0.241436 0.764313 0.271252
144 2 0.243734 0.737326 0.224605
145 1 0.302068 0.291386 0.607529
146 2 0.306813 0.290812 0.578192
147 2 0.292325 0.296988 0.602533
148 1 0.372652 0.143374 0.425715
149 2 0.381673 0.152313 0.414439
150 2 0.373456 0.115256 0.443415
151 1 0.842147 0.551494 0.44447
152 2 0.848327 0.550287 0.470647
153 2 0.838057 0.521457 0.439666
154 1 0.353095 0.729876 0.447209
155 2 0.356449 0.700332 0.436565
156 2 0.348484 0.745617 0.422167
157 1 0.747094 0.98147 0.240674
158 2 0.752298 0.972345 0.213711
159 2 0.750713 0.965761 0.267485
160 1 0.747375 0.220354 0.890721
161 2 0.743517 0.251045 0.888779
162 2 0.740764 0.19997 0.905214
163 1 0.604667 0.493888 0.265427
164 2 0.6038 0.460925 0.269452
165 2 0.597263 0.509275 0.281717
166 1 0.40293 0.108695 0.525426
167 2 0.398324 0.0843424 0.542228
168 2 0.412436 0.100025 0.51977
169 1 0.0237916 0.478605 0.277034
170 2 0.017698 0.452615 0.272233
171 2 0.0331699 0.469813 0.269514
172 1 0.131343 0.362802 0.364914
173 2 0.124378 0.38237 0.351159
174 2 0.139521 0.380831 0.371473
175 1 0.580486 0.383406 0.56555
176 2 0.585744 0.357954 0.578041
177 2 0.579978 0.380516 0.532385
178 1 0.378473 0.650903 0.504334
179 2 0.383956 0.633733 0.526297
180 2 0.37921 0.68349 0.510904
181 1 0.313536 0.211569 0.625289
182 2 0.304603 0.196727 0.627328
183 2 0.312286 0.243987 0.618745
184 1 0.904842 0.412774 0.309345
185 2 0.911667 0.425786 0.329943
186 2 0.908373 0.4131 0.27816
187 1 0.853704 0.447439 0.343996
188 2 0.863041 0.447736 0.33207
189 2 0.849386 0.476946 0.338223
190 1 0.339609 0.178697 0.593918
191 2 0.331215 0.193946 0.603696
192 2 0.347491 0.197759 0.601501
193 1 0.84618 0.540089 0.339925
194 2 0.836258 0.541235 0.343923
195 2 0.850557 0.560067 0.362267
196 1 0.236958 0.546406 0.826739
197 2 0.229878 0.538623 0.804521
198 2 0.238271 0.520866 0.847707
199 1 0.224695 0.458063 0.741331
200 2 0.214831 0.462291 0.737836
201 2 0.227835 0.434454 0.720256
202 1 0.217019 0.415791 0.91373
203 2 0.218027 0.436692 0.939478
204 2 0.215272 0.433248 0.885937
205 1 0.601992 0.410205 0.30389
206 2 0.59359 0.393373 0.297296
207 2 0.609762 0.389225 0.303597
208 1 0.763642 0.0322371 0.803102
209 2 0.76468 0.0571664 0.824958
210 2 0.772662 0.0225208 0.792483
211 1 0.573152 0.894125 0.769936
212 2 0.564242 0.900595 0.756255
213 2 0.579279 0.919981 0.764893
214 1 0.259544 0.624677 0.244546
215 2 0.260288 0.597864 0.264192
216 2 0.263939 0.618394 0.215271
217 1 0.249501 0.645056 0.821567
218 2 0.242812 0.65936 0.801336
219 2 0.247704 0.612313 0.823329
220 1 0.814268 0.554653 0.829847
221 2 0.808913 0.574329 0.809712
222 2 0.820711 0.573206 0.847331
223 1 0.167205 0.494124 0.391662
224 2 0.175275 0.513116 0.396842
225 2 0.162226 0.505391 0.36504
226 1 0.267124 0.700179 0.284583
227 2 0.264611 0.670643 0.271602
228 2 0.260863 0.723595 0.273303
229 1 0.820037 0.573332 0.648663
230 2 0.827581 0.5567 0.634445
231 2 0.81485 0.552674 0.668295
232 1 0.537279 0.807118 0.85224
233 2 0.547007 0.805447 0.859781
234 2 0.532096 0.787695 0.873107
235 1 0.290502 0.570728 0.30035
236 2 0.293863 0.601683 0.305585
237 2 0.294248 0.559086 0.27172
238 1 0.120959 0.44897 0.362239
239 2 0.114926 0.444862 0.388504
240 2 0.130474 0.445493 0.37188
241 1 0.0224781 0.649224 0.392452
242 2 0.030272 0.662186 0.376077
243 2 0.0190993 0.622489 0.376036
244 1 0.336388 0.162503 0.981942
245 2 0.330859 0.134736 0.982605
246 2 0.34509 0.156226 0.96676
247 1 0.353476 0.712177 0.820064
248 2 0.356024 0.716523 0.788125
249 2 0.358284 0.685639 0.832311
250 1 0.835777 0.370193 0.310747
251 2 0.841789 0.368992 0.284137
252 2 0.84109 0.37891 0.337608
253 1 0.196922 0.422818 0.578463
254 2 0.19671 0.433483 0.610036
255 2 0.193647 0.391352 0.577116
256 1 0.548439 0.906876 0.73033
257 2 0.546778 0.886186 0.704787
258 2 0.541499 0.901964 0.753821
259 1 0.443915 0.142165 0.507719
260 2 0.44909 0.159454 0.485034
261 2 0.44367 0.159164 0.536381
262 1 0.00713479 0.171472 0.644696
263 2 0.00759604 0.158814 0.613898
264 2 0.016399 0.176048 0.656382
265 1 0.782434 0.19553 0.868935
266 2 0.773101 0.203329 0.878014
267 2 0.783073 0.195262 0.835671
268 1 0.581117 0.542302 0.312041
269 2 0.578571 0.57403 0.31774
270 2 0.576522 0.522569 0.334112
271 1 0.802125 0.512046 0.684257
272 2 0.793773 0.508524 0.666266
273 2 0.80041 0.502263 0.715605
274 1 0.831532 0.356878 0.436583
275 2 0.826554 0.34061 0.412684
276 2 0.834397 0.335307 0.460133
277 1 0.837953 0.45726 0.430222
278 2 0.844243 0.45128 0.405008
279 2 0.834287 0.428406 0.441593
280 1 0.362341 0.645329 0.425323
281 2 0.363478 0.638886 0.457808
282 2 0.370828 0.638193 0.409207
283 1 0.320187 0.27431 0.534977
284 2 0.329304 0.262049 0.528865
285 2 0.31349 0.258809 0.515677
286 1 0.0108393 0.401043 0.26017
287 2 0.00789085 0.396527 0.228641
288 2 0.00723079 0.376451 0.279188
289 1 0.255851 0.635861 0.14891
290 2 0.250514 0.65721 0.167316
291 2 0.259789 0.651939 0.122829
292 1 0.125763 0.525894 0.321117
293 2 0.11799 0.535013 0.302229
294 2 0.124167 0.495308 0.333254
295 1 0.227389 0.344306 0.868469
296 2 0.224795 0.37064 0.886985
297 2 0.230488 0.319641 0.88837
298 1 0.262452 0.564209 0.314982
299 2 0.27233 0.567369 0.31084
300 2 0.260629 0.542278 0.339337
ITEM: TIMESTEP
3500
ITEM: NUMBER OF ATOMS
300
ITEM: BOX BOUNDS pp ff pp
0.0000000000000000e+00 1.0000000000000000e+02
0.0000000000000000e+00 3.0000000000000000e+01
0.0000000000000000e+00 3.0000000000000000e+01
ITEM: ATOMS id type xs ys zs
1 1 0.358043 0.756062 0.879143
2 2 0.35443 0.73769 0.854072
3 2 0.361773 0.784538 0.867075
4 1 0.585233 0.509144 0.20125
5 2 0.575538 0.50989 0.209383
6 2 0.590398 0.494098 0.225505
7 1 0.00628825 0.669326 0.468675
8 2 0.0136625 0.675875 0.490216
9 2 0.00996577 0.652594 0.442581
10 1 0.569002 0.382328 0.462585
11 2 0.563921 0.359873 0.444695
12 2 0.574526 0.401188 0.442182
13 1 0.824252 0.321549 0.389409
14 2 0.823017 0.34146 0.362994
15 2 0.829999 0.295629 0.380906
16 1 0.238577 0.409773 0.681072
17 2 0.242128 0.41241 0.650023
18 2 0.245308 0.394268 0.700237
19 1 0.425881 0.0988361 0.502082
20 2 0.433489 0.119575 0.495928
21 2 0.42808 0.07985 0.528481
22 1 0.149857 0.472812 0.254907
23 2 0.153359 0.495556 0.276298
24 2 0.142356 0.455979 0.269137
25 1 0.371431 0.747999 0.498014
26 2 0.362902 0.744524 0.480962
27 2 0.370002 0.769096 0.523378
28 1 0.623663 0.387976 0.296346
29 2 0.620498 0.407392 0.271388
30 2 0.633169 0.379158 0.290933
31 1 0.54916 0.517001 0.1951
32 2 0.543708 0.536364 0.215245
33 2 0.552686 0.535237 0.169793
34 1 0.159525 0.533564 0.326132
35 2 0.163895 0.555889 0.306118
36 2 0.150133 0.543085 0.332474
37 1 0.286011 0.33848 0.680265
38 2 0.292906 0.314341 0.680711
39 2 0.283169 0.344222 0.648826
40 1 0.354309 0.17647 0.445623
41 2 0.364191 0.171382 0.445133
42 2 0.350906 0.178837 0.414368
43 1 0.102738 0.419229 0.431611
44 2 0.10958 0.39591 0.424741
45 2 0.0949438 0.405155 0.447039
46 1 0.588742 0.409041 0.400875
47 2 0.591441 0.398649 0.370508
48 2 0.596827 0.419482 0.417483
49 1 0.559601 0.426289 0.226622
50 2 0.555166 0.446569 0.204684
51 2 0.556954 0.435052 0.257549
52 1 0.799949 0.486371 0.769096
53 2 0.803601 0.511558 0.787222
54 2 0.798878 0.459466 0.788448
55 1 0.628974 0.936597 0.144477
56 2 0.630991 0.928323 0.176059
57 2 0.625004 0.967178 0.143579
58 1 0.236486 0.430383 0.503491
59 2 0.238006 0.42409 0.471152
60 2 0.226699 0.428752 0.510148
61 1 0.317246 0.174664 0.8889
62 2 0.322009 0.18254 0.917132
63 2 0.318651 0.198817 0.86641
64 1 0.335519 0.229814 0.498173
65 2 0.336616 0.222586 0.530507
66 2 0.34124 0.209389 0.479998
67 1 0.241621 0.674229 0.210416
68 2 0.234449 0.658075 0.193721
69 2 0.246259 0.653031 0.230977
70 1 0.817636 0.501965 0.406353
71 2 0.823499 0.47596 0.399078
72 2 0.80805 0.493229 0.402648
73 1 0.0299675 0.533797 0.313357
74 2 0.0209518 0.543053 0.302298
75 2 0.0331279 0.507322 0.296061
76 1 0.802254 0.637504 0.688419
77 2 0.810229 0.626204 0.671782
78 2 0.798742 0.664861 0.673397
79 1 0.322842 0.0881923 0.911465
80 2 0.315041 0.0677619 0.907296
81 2 0.322017 0.114072 0.890637
82 1 0.581816 0.512725 0.106042
83 2 0.584782 0.514333 0.137835
84 2 0.587192 0.489655 0.0899877
85 1 0.281096 0.42746 0.673574
86 2 0.275147 0.438057 0.698185
87 2 0.284273 0.39659 0.680351
88 1 0.529654 0.898155 0.835076
89 2 0.52726 0.897927 0.867438
90 2 0.535097 0.871122 0.827916
91 1 0.245727 0.827635 0.163587
92 2 0.238304 0.849481 0.158942
93 2 0.254256 0.844089 0.169265
94 1 0.56757 0.753073 0.883474
95 2 0.576133 0.736683 0.888746
96 2 0.569374 0.78024 0.86512
97 1 0.586023 0.382121 0.241167
98 2 0.577821 0.374222 0.22381
99 2 0.586224 0.415023 0.246474
100 1 0.14528 0.460199 0.442203
101 2 0.142577 0.466793 0.47361
102 2 0.154722 0.47006 0.437369
103 1 0.281913 0.43802 0.588053
104 2 0.280855 0.441393 0.621027
105 2 0.291629 0.435705 0.580521
106 1 0.249695 0.427179 0.597485
107 2 0.258505 0.440605 0.589208
108 2 0.243221 0.431343 0.572423
109 1 0.210693 0.433882 0.523785
110 2 0.202971 0.44045 0.50365
111 2 0.209056 0.447655 0.553646
112 1 0.271929 0.832209 0.202641
113 2 0.269391 0.803192 0.216697
114 2 0.279159 0.846639 0.220586
115 1 0.57208 0.827199 0.832024
116 2 0.572811 0.838962 0.800931
117 2 0.574794 0.850925 0.85362
118 1 0.290432 0.633185 0.311206
119 2 0.294327 0.641767 0.340684
120 2 0.283888 0.656435 0.30148
121 1 0.0403175 0.629054 0.314291
122 2 0.0411169 0.595974 0.311172
123 2 0.0486024 0.64358 0.302568
124 1 0.116009 0.340767 0.422798
125 2 0.114842 0.30876 0.431254
126 2 0.122646 0.34309 0.397974
127 1 0.805701 0.625347 0.774026
128 2 0.797929 0.631755 0.794001
129 2 0.803231 0.632479 0.742522
130 1 0.559811 0.569798 0.131897
131 2 0.552042 0.570172 0.110915
132 2 0.566861 0.54927 0.120174
133 1 0.227253 0.457131 0.832046
134 2 0.232899 0.43138 0.841736
135 2 0.225099 0.45407 0.79964
136 1 0.272924 0.347403 0.60174
137 2 0.263263 0.342933 0.609088
138 2 0.274362 0.37873 0.591407
139 1 0.372307 0.672387 0.88206
140 2 0.366731 0.699139 0.889122
141 2 0.373655 0.654358 0.909735
142 1 0.251939 0.751402 0.272858
143 2 0.246224 0.778118 0.266985
144 2 0.247671 0.724434 0.259388
145 1 0.29395 0.277443 0.595418
146 2 0.302512 0.283172 0.579177
147 2 0.287481 0.302043 0.589009
148 1 0.385081 0.141897 0.422874
149 2 0.39378 0.153288 0.434729
150 2 0.385434 0.108656 0.420693
151 1 0.847167 0.542498 0.395871
152 2 0.842065 0.562778 0.416133
153 2 0.845091 0.510799 0.40351
154 1 0.349649 0.728836 0.454817
155 2 0.346138 0.69783 0.451246
156 2 0.349605 0.74424 0.425257
157 1 0.748762 0.977277 0.242783
158 2 0.744086 0.975793 0.213355
159 2 0.758556 0.981841 0.237846
160 1 0.75316 0.192679 0.90948
161 2 0.747523 0.182855 0.935201
162 2 0.747836 0.190628 0.881337
163 1 0.595654 0.472488 0.277443
164 2 0.59579 0.452614 0.304199
165 2 0.594957 0.504263 0.287243
166 1 0.400095 0.0696235 0.472745
167 2 0.402583 0.0457591 0.451001
168 2 0.408294 0.0801011 0.4887
169 1 0.0376136 0.462711 0.269966
170 2 0.0305142 0.439341 0.267735
171 2 0.0454923 0.450395 0.28639
172 1 0.134337 0.347577 0.350256
173 2 0.135058 0.380689 0.353236
174 2 0.142759 0.335558 0.336893
175 1 0.588245 0.414641 0.536373
176 2 0.584713 0.398872 0.509468
177 2 0.580633 0.427797 0.553529
178 1 0.37333 0.664283 0.504875
179 2 0.382485 0.660628 0.517778
180 2 0.371839 0.696287 0.49699
181 1 0.312367 0.22005 0.646234
182 2 0.309944 0.210865 0.677243
183 2 0.304027 0.225565 0.628685
184 1 0.909243 0.433352 0.27932
185 2 0.91205 0.453599 0.254548
186 2 0.917031 0.414751 0.28887
187 1 0.848888 0.430004 0.310067
188 2 0.8588 0.430864 0.305757
189 2 0.845186 0.460866 0.307545
190 1 0.338015 0.221091 0.5915
191 2 0.330196 0.230498 0.61003
192 2 0.340684 0.190054 0.599786
193 1 0.851322 0.529577 0.308845
194 2 0.844847 0.549227 0.292747
195 2 0.85119 0.536887 0.341364
196 1 0.217648 0.536627 0.807486
197 2 0.213743 0.528865 0.777797
198 2 0.222481 0.510176 0.819813
199 1 0.222058 0.458963 0.737432
200 2 0.213655 0.441002 0.735482
201 2 0.229426 0.44301 0.72151
202 1 0.221516 0.40412 0.931636
203 2 0.225344 0.410392 0.961784
204 2 0.214477 0.426723 0.924582
205 1 0.598081 0.390623 0.321852
206 2 0.593856 0.382855 0.292656
207 2 0.607789 0.382665 0.321044
208 1 0.759033 0.0129251 0.815116
209 2 0.768099 0.0242371 0.823469
210 2 0.758738 0.00702288 0.782324
211 1 0.569003 0.897927 0.763212
212 2 0.560245 0.91305 0.768718
213 2 0.573256 0.910746 0.735902
214 1 0.253015 0.601092 0.261026
215 2 0.25102 0.585925 0.289954
216 2 0.260917 0.586567 0.246662
217 1 0.235927 0.602132 0.829051
218 2 0.237587 0.603185 0.861905
219 2 0.227681 0.584274 0.82298
220 1 0.81002 0.548747 0.818206
221 2 0.811056 0.575739 0.798954
222 2 0.817221 0.548447 0.841331
223 1 0.168287 0.503873 0.408997
224 2 0.178009 0.501424 0.401586
225 2 0.163265 0.514566 0.382229
226 1 0.270227 0.678565 0.274405
227 2 0.26308 0.656599 0.266595
228 2 0.266206 0.708952 0.277249
229 1 0.819833 0.591037 0.645262
230 2 0.825659 0.571699 0.626288
231 2 0.813887 0.571887 0.664012
232 1 0.541851 0.815258 0.835519
233 2 0.537964 0.784707 0.838666
234 2 0.551834 0.813305 0.835886
235 1 0.284067 0.575076 0.246436
236 2 0.285937 0.595495 0.272035
237 2 0.291011 0.57944 0.222851
238 1 0.126495 0.443881 0.380775
239 2 0.117884 0.44068 0.39742
240 2 0.134063 0.446093 0.402451
241 1 0.0217929 0.620693 0.395294
242 2 0.0191857 0.588773 0.39121
243 2 0.0287922 0.628806 0.372912
244 1 0.329224 0.168634 0.973065
245 2 0.328692 0.137657 0.960883
246 2 0.338188 0.173378 0.987055
247 1 0.354399 0.688807 0.811263
248 2 0.354177 0.668459 0.784872
249 2 0.362479 0.682092 0.829718
250 1 0.824056 0.386449 0.32861
251 2 0.820719 0.39544 0.298501
252 2 0.832109 0.404603 0.336416
253 1 0.205716 0.45733 0.614057
254 2 0.211882 0.432684 0.623068
255 2 0.205666 0.480855 0.637672
256 1 0.543063 0.941786 0.759862
257 2 0.537488 0.956259 0.736276
258 2 0.537348 0.934874 0.78633
259 1 0.451481 0.137196 0.527114
260 2 0.454917 0.143914 0.557689
261 2 0.456258 0.156225 0.504856
262 1 0.00853928 0.169282 0.649512
263 2 0.0055971 0.149872 0.62425
264 2 0.0180635 0.178332 0.644895
265 1 0.783908 0.196102 0.910034
266 2 0.774236 0.194224 0.918292
267 2 0.7886 0.216801 0.930963
268 1 0.589142 0.562018 0.300534
269 2 0.593552 0.567817 0.271185
270 2 0.584025 0.589063 0.309953
271 1 0.804404 0.524798 0.684815
272 2 0.797371 0.5314 0.662059
273 2 0.800069 0.513963 0.712832
274 1 0.833669 0.370307 0.460434
275 2 0.82913 0.355203 0.434859
276 2 0.829967 0.358629 0.489112
277 1 0.841537 0.442578 0.411643
278 2 0.848943 0.432116 0.391839
279 2 0.83926 0.418617 0.433538
280 1 0.349805 0.641429 0.448192
281 2 0.34566 0.618726 0.468311
282 2 0.358622 0.65095 0.460711
283 1 0.320271 0.306153 0.522115
284 2 0.323308 0.280993 0.502736
285 2 0.326175 0.332599 0.517174
286 1 0.0171856 0.404116 0.27573
287 2 0.0155259 0.379669 0.253756
288 2 0.0104174 0.40237 0.300207
289 1 0.254863 0.64219 0.13313
290 2 0.251078 0.654378 0.161474
291 2 0.25956 0.666518 0.116574
292 1 0.131874 0.520016 0.330361
293 2 0.123102 0.531436 0.319145
294 2 0.130313 0.493685 0.350129
295 1 0.235625 0.371642 0.862779
296 2 0.229554 0.382521 0.88693
297 2 0.238655 0.340675 0.869857
298 1 0.26392 0.546165 0.33633
299 2 0.271776 0.554463 0.317447
300 2 0.265622 0.555378 0.367858
ITEM: TIMESTEP
3600
ITEM: NUMBER OF ATOMS
300
ITEM: BOX BOUNDS pp ff pp
0.0000000000000000e+00 1.0000000000000000e+02
0.0000000000000000e+00 3.0000000000000000e+01
0.0000000000000000e+00 3.0000000000000000e+01
ITEM: ATOMS id type xs ys zs
1 1 0.354403 0.737603 0.888533
2 2 0.347229 0.71725 0.877354
3 2 0.353657 0.767119 0.873243
4 1 0.580644 0.523532 0.220834
5 2 0.570698 0.521593 0.217948
6 2 0.583724 0.503012 0.245013
7 1 0.00725575 0.662813 0.454248
8 2 1.00167 0.66066 0.426691
9 2 0.015516 0.6444 0.450511
10 1 0.56872 0.381093 0.486622
11 2 0.562511 0.355082 0.484156
12 2 0.571849 0.389915 0.456216
13 1 0.830277 0.332714 0.397096
14 2 0.825037 0.353869 0.378164
15 2 0.828827 0.301551 0.386296
16 1 0.242158 0.445093 0.685387
17 2 0.244676 0.44669 0.653167
18 2 0.249845 0.433015 0.702957
19 1 0.421955 0.120371 0.505885
20 2 0.431498 0.120107 0.51585
21 2 0.416337 0.135564 0.528898
22 1 0.148303 0.448446 0.282545
23 2 0.1569 0.445752 0.29936
24 2 0.142133 0.468985 0.298861
25 1 0.364002 0.736901 0.472946
26 2 0.355208 0.738649 0.457169
27 2 0.363736 0.756082 0.500193
28 1 0.619091 0.389168 0.30549
29 2 0.622206 0.384244 0.274201
30 2 0.623277 0.366478 0.325529
31 1 0.553363 0.501771 0.195313
32 2 0.544809 0.510436 0.210248
33 2 0.555415 0.52349 0.17097
34 1 0.160645 0.529486 0.337501
35 2 0.159903 0.561146 0.32737
36 2 0.152454 0.512716 0.328308
37 1 0.294649 0.349778 0.705606
38 2 0.300646 0.332157 0.685582
39 2 0.28618 0.332837 0.710824
40 1 0.35223 0.178138 0.490952
41 2 0.36166 0.169895 0.483538
42 2 0.351855 0.19048 0.521891
43 1 0.107664 0.429427 0.411796
44 2 0.107635 0.396375 0.416115
45 2 0.0986778 0.44175 0.419667
46 1 0.578911 0.403735 0.408193
47 2 0.585282 0.393738 0.384524
48 2 0.583162 0.427808 0.426384
49 1 0.561002 0.410466 0.19359
50 2 0.561295 0.443619 0.190263
51 2 0.551577 0.399875 0.190137
52 1 0.801635 0.479276 0.760763
53 2 0.804152 0.507875 0.775688
54 2 0.797736 0.458397 0.783264
55 1 0.633103 0.941529 0.17189
56 2 0.642769 0.940056 0.180304
57 2 0.627687 0.924322 0.194004
58 1 0.239008 0.448392 0.514062
59 2 0.237986 0.465425 0.485612
60 2 0.229982 0.442486 0.527144
61 1 0.315388 0.151678 0.868184
62 2 0.316052 0.169107 0.896511
63 2 0.322439 0.162001 0.846921
64 1 0.330692 0.238292 0.483534
65 2 0.33256 0.243855 0.515805
66 2 0.336316 0.212898 0.472818
67 1 0.242539 0.667272 0.210534
68 2 0.233788 0.683397 0.209994
69 2 0.243123 0.648754 0.238182
70 1 0.827259 0.502085 0.430521
71 2 0.832251 0.474758 0.421166
72 2 0.819823 0.493504 0.451087
73 1 0.0387925 0.524083 0.291014
74 2 0.0292515 0.520391 0.30029
75 2 0.0420267 0.495907 0.276837
76 1 0.80211 0.665774 0.713374
77 2 0.808147 0.642698 0.700195
78 2 0.801392 0.691655 0.692504
79 1 0.319925 0.0809228 0.921483
80 2 0.311798 0.0674306 0.935457
81 2 0.317645 0.0920571 0.890997
82 1 0.582862 0.531232 0.122077
83 2 0.586529 0.528054 0.152924
84 2 0.588599 0.514202 0.100737
85 1 0.283312 0.433401 0.691459
86 2 0.282794 0.453946 0.717651
87 2 0.287271 0.404317 0.701003
88 1 0.531562 0.898166 0.850248
89 2 0.524147 0.897194 0.87259
90 2 0.534723 0.867169 0.843978
91 1 0.252874 0.792 0.159531
92 2 0.252689 0.771718 0.133085
93 2 0.262219 0.802745 0.164565
94 1 0.570217 0.754792 0.828556
95 2 0.577927 0.743885 0.846768
96 2 0.57094 0.787801 0.824592
97 1 0.591148 0.409293 0.218531
98 2 0.582118 0.401258 0.206673
99 2 0.590381 0.436223 0.238009
100 1 0.149019 0.471428 0.484158
101 2 0.152484 0.455386 0.510997
102 2 0.156708 0.482301 0.465828
103 1 0.280825 0.43007 0.594316
104 2 0.282228 0.426073 0.627078
105 2 0.289599 0.436354 0.579606
106 1 0.253026 0.431006 0.597825
107 2 0.262611 0.437933 0.591317
108 2 0.247252 0.443692 0.573747
109 1 0.212519 0.450211 0.534505
110 2 0.202819 0.44211 0.534517
111 2 0.215347 0.45835 0.565424
112 1 0.280358 0.801571 0.204994
113 2 0.278176 0.774 0.222258
114 2 0.288227 0.816766 0.218858
115 1 0.566927 0.851809 0.85019
116 2 0.565901 0.865823 0.82014
117 2 0.569963 0.874812 0.872089
118 1 0.293046 0.622518 0.296058
119 2 0.301101 0.642233 0.297322
120 2 0.285197 0.638528 0.309105
121 1 0.0402111 0.641868 0.327768
122 2 0.0397152 0.620817 0.301976
123 2 0.0475801 0.663811 0.322644
124 1 0.108821 0.334266 0.399372
125 2 0.111745 0.306031 0.414168
126 2 0.115936 0.344538 0.378321
127 1 0.802158 0.637425 0.797028
128 2 0.800701 0.656191 0.824145
129 2 0.800565 0.655782 0.769716
130 1 0.557226 0.558165 0.111132
131 2 0.555021 0.549096 0.0799093
132 2 0.566897 0.552181 0.117143
133 1 0.22478 0.467868 0.861484
134 2 0.229155 0.442211 0.845988
135 2 0.230578 0.494895 0.858826
136 1 0.268857 0.349938 0.569081
137 2 0.260266 0.349223 0.552036
138 2 0.269315 0.37796 0.587068
139 1 0.373999 0.677234 0.892971
140 2 0.367012 0.700928 0.890279
141 2 0.380591 0.685876 0.9165
142 1 0.259974 0.729321 0.232241
143 2 0.257944 0.760264 0.221854
144 2 0.25527 0.707356 0.212674
145 1 0.292127 0.305842 0.572266
146 2 0.298262 0.305225 0.54595
147 2 0.282954 0.314694 0.562373
148 1 0.378858 0.151145 0.45375
149 2 0.379872 0.124792 0.43362
150 2 0.3879 0.162541 0.462288
151 1 0.844455 0.518342 0.349767
152 2 0.83587 0.529861 0.362398
153 2 0.848007 0.494115 0.369362
154 1 0.34101 0.726817 0.434577
155 2 0.341899 0.703452 0.458165
156 2 0.333346 0.719218 0.414559
157 1 0.750827 0.97355 0.24209
158 2 0.741135 0.978581 0.248584
159 2 0.753671 0.99327 0.216943
160 1 0.759674 0.163176 0.929053
161 2 0.757465 0.145944 0.901486
162 2 0.754073 0.152147 0.954368
163 1 0.588622 0.469716 0.293365
164 2 0.591902 0.442988 0.310013
165 2 0.589095 0.49652 0.313117
166 1 0.413341 0.0936294 0.421571
167 2 0.413393 0.0618776 0.431716
168 2 0.418067 0.112557 0.444037
169 1 0.0404797 0.431054 0.256372
170 2 0.0332139 0.409348 0.263679
171 2 0.0493723 0.416202 0.259819
172 1 0.126616 0.381206 0.351641
173 2 0.136046 0.390055 0.358322
174 2 0.123199 0.399184 0.325987
175 1 0.592621 0.435579 0.48812
176 2 0.585497 0.413923 0.496964
177 2 0.589286 0.466687 0.492569
178 1 0.37373 0.665919 0.500088
179 2 0.383189 0.662546 0.510365
180 2 0.372346 0.696764 0.488325
181 1 0.305687 0.269687 0.643356
182 2 0.304511 0.236854 0.639142
183 2 0.302084 0.285813 0.61677
184 1 0.908089 0.463184 0.247621
185 2 0.908973 0.466346 0.280673
186 2 0.898969 0.473074 0.238182
187 1 0.843225 0.416128 0.285183
188 2 0.849442 0.394517 0.270531
189 2 0.847004 0.446904 0.282879
190 1 0.332862 0.245878 0.579899
191 2 0.327437 0.268906 0.59583
192 2 0.337748 0.227176 0.602173
193 1 0.85833 0.492916 0.272032
194 2 0.853862 0.493883 0.242227
195 2 0.852981 0.510613 0.293941
196 1 0.205651 0.497514 0.795486
197 2 0.206343 0.480539 0.766891
198 2 0.21055 0.481125 0.819482
199 1 0.216274 0.456045 0.72106
200 2 0.214403 0.42345 0.724188
201 2 0.225283 0.460336 0.707239
202 1 0.228759 0.398765 0.932644
203 2 0.218917 0.394642 0.936854
204 2 0.230768 0.431166 0.928597
205 1 0.593227 0.389682 0.334073
206 2 0.588831 0.361853 0.323027
207 2 0.60291 0.389296 0.32576
208 1 0.7547 0.00941858 0.829194
209 2 0.762202 0.00405967 0.850573
210 2 0.757797 0.00292538 0.798171
211 1 0.561408 0.879335 0.766168
212 2 0.557955 0.909496 0.774473
213 2 0.555552 0.866093 0.742615
214 1 0.249213 0.600144 0.271944
215 2 0.248839 0.582083 0.299933
216 2 0.256668 0.589076 0.252679
217 1 0.223383 0.568537 0.815989
218 2 0.22675 0.581609 0.787454
219 2 0.214472 0.554339 0.810779
220 1 0.808498 0.553204 0.808885
221 2 0.804216 0.580529 0.796208
222 2 0.814252 0.561689 0.834794
223 1 0.169247 0.485724 0.427378
224 2 0.178353 0.475678 0.417951
225 2 0.164723 0.500976 0.40186
226 1 0.268934 0.679173 0.30605
227 2 0.261492 0.657283 0.310111
228 2 0.26682 0.699328 0.280452
229 1 0.816269 0.60166 0.661928
230 2 0.825839 0.59633 0.653863
231 2 0.812071 0.572951 0.671472
232 1 0.542868 0.810842 0.839592
233 2 0.54475 0.778265 0.842826
234 2 0.551353 0.828045 0.843496
235 1 0.276922 0.562386 0.247132
236 2 0.284095 0.581889 0.259742
237 2 0.279351 0.553583 0.216019
238 1 0.131927 0.463843 0.404318
239 2 0.122677 0.451198 0.403564
240 2 0.136402 0.455064 0.432805
241 1 0.0230119 0.602019 0.404794
242 2 0.025322 0.576127 0.424324
243 2 0.0307486 0.608943 0.384842
244 1 0.322836 0.166428 0.95731
245 2 0.324191 0.134237 0.949932
246 2 0.32469 0.171379 0.989689
247 1 0.354667 0.670726 0.82591
248 2 0.357439 0.656396 0.797269
249 2 0.36131 0.663311 0.849696
250 1 0.818888 0.408333 0.344483
251 2 0.813458 0.436279 0.342893
252 2 0.827111 0.411772 0.325828
253 1 0.221801 0.47734 0.618609
254 2 0.230676 0.466322 0.629312
255 2 0.217859 0.497812 0.641398
256 1 0.546009 0.955809 0.803904
257 2 0.54175 0.985321 0.810114
258 2 0.540501 0.931559 0.817541
259 1 0.44894 0.0996406 0.526873
260 2 0.448083 0.0735688 0.506301
261 2 0.457963 0.0992105 0.541241
262 1 0.00997698 0.167168 0.653881
263 2 0.00447413 0.144462 0.637785
264 2 0.0173552 0.177704 0.634001
265 1 0.783854 0.18471 0.949049
266 2 0.774294 0.177759 0.942181
267 2 0.7885 0.194504 0.921204
268 1 0.600224 0.562496 0.281681
269 2 0.595829 0.553177 0.253227
270 2 0.60523 0.590934 0.276791
271 1 0.802117 0.519193 0.678956
272 2 0.803927 0.494747 0.657113
273 2 0.801095 0.506232 0.709477
274 1 0.84051 0.382692 0.457421
275 2 0.835218 0.372112 0.431192
276 2 0.839752 0.360522 0.482184
277 1 0.847126 0.432775 0.387713
278 2 0.848006 0.413848 0.360432
279 2 0.847177 0.413337 0.414792
280 1 0.347646 0.650298 0.478918
281 2 0.343621 0.62263 0.491786
282 2 0.357578 0.649388 0.482699
283 1 0.31359 0.309483 0.504828
284 2 0.31674 0.280638 0.491835
285 2 0.321435 0.326663 0.516325
286 1 0.0194005 0.371569 0.272925
287 2 0.00967818 0.378642 0.269636
288 2 0.0206334 0.338505 0.273929
289 1 0.259961 0.677739 0.131046
290 2 0.252889 0.669835 0.153245
291 2 0.256624 0.671358 0.100278
292 1 0.134826 0.506332 0.331336
293 2 0.129053 0.533541 0.330687
294 2 0.131889 0.48639 0.356186
295 1 0.2398 0.389333 0.84757
296 2 0.23687 0.380281 0.878129
297 2 0.244335 0.363632 0.832669
298 1 0.262057 0.528233 0.31186
299 2 0.266916 0.542583 0.286506
300 2 0.265523 0.497288 0.316334
ITEM: TIMESTEP
3700
ITEM: NUMBER OF ATOMS
300
ITEM: BOX BOUNDS pp ff pp
0.0000000000000000e+00 1.0000000000000000e+02
0.0000000000000000e+00 3.0000000000000000e+01
0.0000000000000000e+00 3.0000000000000000e+01
ITEM: ATOMS id type xs ys zs
1 1 0.349784 0.722554 0.898305
2 2 0.349292 0.698972 0.874804
3 2 0.34125 0.739931 0.89861
4 1 0.574992 0.533619 0.23495
5 2 0.566298 0.521217 0.224108
6 2 0.579769 0.510529 0.252962
7 1 0.00521109 0.663645 0.445494
8 2 0.997742 0.641493 0.446228
9 2 0.0128279 0.651243 0.427812
10 1 0.573375 0.403103 0.495144
11 2 0.570435 0.376243 0.512279
12 2 0.56943 0.402161 0.46453
13 1 0.822268 0.341512 0.419422
14 2 0.823161 0.367134 0.398309
15 2 0.812748 0.338868 0.429279
16 1 0.244745 0.455651 0.715039
17 2 0.248333 0.450474 0.68436
18 2 0.251493 0.472401 0.733055
19 1 0.423326 0.128221 0.497225
20 2 0.427307 0.0978814 0.501035
21 2 0.420703 0.140345 0.527019
22 1 0.152603 0.410671 0.298326
23 2 0.148378 0.440638 0.294488
24 2 0.162531 0.414128 0.300362
25 1 0.359129 0.753603 0.443103
26 2 0.360058 0.783856 0.456751
27 2 0.349459 0.745199 0.441904
28 1 0.613266 0.379293 0.30602
29 2 0.608815 0.383153 0.276422
30 2 0.620928 0.358093 0.302965
31 1 0.552514 0.493105 0.189135
32 2 0.543152 0.497636 0.199935
33 2 0.553662 0.508097 0.159611
34 1 0.161403 0.534776 0.36654
35 2 0.161158 0.558767 0.389668
36 2 0.15206 0.526001 0.358527
37 1 0.298786 0.361932 0.721217
38 2 0.296978 0.333559 0.704794
39 2 0.307368 0.359137 0.738096
40 1 0.351689 0.198866 0.50182
41 2 0.360444 0.183533 0.496894
42 2 0.352468 0.219628 0.527768
43 1 0.101719 0.414951 0.442304
44 2 0.102838 0.385528 0.42709
45 2 0.0958416 0.411242 0.469016
46 1 0.571837 0.396614 0.403898
47 2 0.575004 0.387084 0.373751
48 2 0.579 0.414361 0.418934
49 1 0.572945 0.432384 0.169206
50 2 0.563819 0.444151 0.176072
51 2 0.579068 0.457782 0.162164
52 1 0.804058 0.488787 0.748516
53 2 0.8062 0.51369 0.769491
54 2 0.805046 0.459638 0.764345
55 1 0.638495 0.943368 0.200552
56 2 0.633752 0.915235 0.208901
57 2 0.632314 0.969276 0.20448
58 1 0.246309 0.431248 0.529296
59 2 0.247689 0.454935 0.5063
60 2 0.236518 0.425569 0.533022
61 1 0.314582 0.133444 0.862641
62 2 0.313992 0.15779 0.885324
63 2 0.320559 0.143071 0.837709
64 1 0.325789 0.248073 0.489924
65 2 0.325198 0.245132 0.523069
66 2 0.332585 0.226618 0.478192
67 1 0.243783 0.640824 0.197528
68 2 0.234111 0.642354 0.205864
69 2 0.248383 0.61816 0.216563
70 1 0.838043 0.497155 0.429767
71 2 0.841874 0.475218 0.408161
72 2 0.843247 0.496118 0.458212
73 1 0.0367013 0.517476 0.266844
74 2 0.0286642 0.517484 0.24701
75 2 0.0405195 0.486703 0.268312
76 1 0.804612 0.684214 0.733904
77 2 0.806015 0.653018 0.723131
78 2 0.811104 0.704556 0.718773
79 1 0.314987 0.071597 0.931756
80 2 0.309302 0.0441772 0.931451
81 2 0.315969 0.0831886 0.900675
82 1 0.583042 0.557157 0.146646
83 2 0.580707 0.550238 0.178312
84 2 0.592538 0.567465 0.144982
85 1 0.288079 0.458312 0.705366
86 2 0.293407 0.476581 0.726858
87 2 0.289513 0.425938 0.711704
88 1 0.530252 0.884647 0.86046
89 2 0.520879 0.879778 0.871012
90 2 0.535135 0.855561 0.860141
91 1 0.265678 0.786736 0.150449
92 2 0.263679 0.770594 0.122056
93 2 0.27521 0.796818 0.150304
94 1 0.561212 0.780861 0.803979
95 2 0.568653 0.761299 0.793337
96 2 0.564938 0.810199 0.81379
97 1 0.589161 0.39989 0.236455
98 2 0.585589 0.396475 0.205509
99 2 0.588137 0.431571 0.24624
100 1 0.14245 0.484809 0.480968
101 2 0.141662 0.454981 0.495614
102 2 0.151441 0.487546 0.466634
103 1 0.277616 0.417064 0.618116
104 2 0.279342 0.434674 0.645828
105 2 0.283789 0.390858 0.617135
106 1 0.253026 0.44289 0.613955
107 2 0.26283 0.438115 0.609433
108 2 0.248264 0.43937 0.584856
109 1 0.219001 0.452345 0.543911
110 2 0.2095 0.459695 0.53656
111 2 0.2223 0.473043 0.567613
112 1 0.291926 0.760913 0.200107
113 2 0.283188 0.748511 0.18967
114 2 0.290614 0.776539 0.229224
115 1 0.574705 0.851733 0.838249
116 2 0.570374 0.869024 0.813681
117 2 0.580142 0.872337 0.857173
118 1 0.295974 0.632382 0.288458
119 2 0.303864 0.638356 0.308049
120 2 0.289653 0.658168 0.289975
121 1 0.0462733 0.568594 0.340452
122 2 0.0432793 0.554844 0.311774
123 2 0.0562584 0.567876 0.342127
124 1 0.11018 0.342258 0.379634
125 2 0.113204 0.311118 0.385946
126 2 0.117863 0.360054 0.367864
127 1 0.799242 0.634561 0.807926
128 2 0.801321 0.64159 0.839764
129 2 0.800027 0.662284 0.789604
130 1 0.561178 0.524316 0.110723
131 2 0.562852 0.512165 0.0801892
132 2 0.569428 0.539543 0.121817
133 1 0.222323 0.477526 0.88779
134 2 0.229759 0.469961 0.866826
135 2 0.217354 0.50407 0.876295
136 1 0.265417 0.357294 0.541179
137 2 0.25954 0.383231 0.533787
138 2 0.262526 0.344004 0.570189
139 1 0.374683 0.68057 0.90111
140 2 0.366811 0.70069 0.90534
141 2 0.382528 0.698447 0.890738
142 1 0.262005 0.719955 0.223652
143 2 0.260475 0.745332 0.202648
144 2 0.25692 0.69325 0.213133
145 1 0.292888 0.33299 0.555893
146 2 0.29871 0.319152 0.532591
147 2 0.283726 0.337865 0.543457
148 1 0.372819 0.147898 0.472498
149 2 0.381332 0.16248 0.482151
150 2 0.374135 0.133714 0.442654
151 1 0.843102 0.52045 0.309796
152 2 0.845044 0.547624 0.327983
153 2 0.839249 0.496754 0.329409
154 1 0.336033 0.703956 0.434068
155 2 0.339007 0.686654 0.460779
156 2 0.326298 0.69852 0.428726
157 1 0.752268 0.971205 0.240365
158 2 0.751109 0.977101 0.272944
159 2 0.745296 0.987862 0.223228
160 1 0.764562 0.124273 0.941305
161 2 0.761216 0.122465 0.909945
162 2 0.760517 0.0996836 0.959326
163 1 0.588048 0.478435 0.291652
164 2 0.58765 0.452659 0.312745
165 2 0.595228 0.499509 0.301353
166 1 0.420426 0.138845 0.406074
167 2 0.423795 0.169875 0.401368
168 2 0.422333 0.129359 0.43739
169 1 0.0420246 0.431223 0.266904
170 2 0.0343698 0.412724 0.25605
171 2 0.0476088 0.413243 0.287912
172 1 0.134241 0.400165 0.366547
173 2 0.133375 0.430745 0.379494
174 2 0.140941 0.400637 0.341807
175 1 0.591283 0.448954 0.441823
176 2 0.587607 0.430878 0.467008
177 2 0.590754 0.481342 0.449504
178 1 0.367249 0.671569 0.474648
179 2 0.377153 0.673655 0.478757
180 2 0.363771 0.700548 0.462947
181 1 0.301895 0.296093 0.647155
182 2 0.299977 0.263517 0.650155
183 2 0.299267 0.306375 0.616682
184 1 0.911356 0.501366 0.203996
185 2 0.906402 0.479932 0.223461
186 2 0.905579 0.510073 0.178218
187 1 0.843197 0.394741 0.303216
188 2 0.839912 0.371602 0.281867
189 2 0.846198 0.421646 0.286271
190 1 0.333032 0.274269 0.581215
191 2 0.335089 0.305536 0.571915
192 2 0.332802 0.27249 0.614492
193 1 0.853495 0.460123 0.248646
194 2 0.854281 0.465271 0.215817
195 2 0.85246 0.489381 0.26424
196 1 0.203399 0.461484 0.786494
197 2 0.210752 0.452421 0.765802
198 2 0.197046 0.436046 0.790449
199 1 0.217077 0.437846 0.718266
200 2 0.215553 0.40979 0.700998
201 2 0.226635 0.447161 0.715208
202 1 0.235263 0.396813 0.921589
203 2 0.230099 0.370907 0.933576
204 2 0.229021 0.422147 0.915563
205 1 0.586821 0.388225 0.32561
206 2 0.58694 0.381914 0.292882
207 2 0.59559 0.379392 0.338982
208 1 0.752353 0.0331246 0.852953
209 2 0.758038 0.0117906 0.835724
210 2 0.742806 0.0232951 0.851616
211 1 0.558077 0.895835 0.779067
212 2 0.555047 0.924281 0.793206
213 2 0.550192 0.875939 0.774126
214 1 0.256389 0.598837 0.265371
215 2 0.253426 0.571072 0.280951
216 2 0.265581 0.594354 0.253033
217 1 0.208179 0.542329 0.827161
218 2 0.208998 0.570571 0.809666
219 2 0.20556 0.517436 0.806783
220 1 0.806023 0.547594 0.810482
221 2 0.80157 0.577164 0.806443
222 2 0.813255 0.550295 0.833346
223 1 0.167616 0.482747 0.434616
224 2 0.174872 0.459967 0.437309
225 2 0.166622 0.491711 0.402682
226 1 0.274327 0.680134 0.295453
227 2 0.266705 0.660534 0.304478
228 2 0.271343 0.700771 0.271239
229 1 0.806312 0.602736 0.68064
230 2 0.805887 0.570898 0.670869
231 2 0.798873 0.619849 0.666379
232 1 0.541562 0.801027 0.861024
233 2 0.549832 0.793752 0.843756
234 2 0.535382 0.774826 0.860622
235 1 0.280207 0.569133 0.234536
236 2 0.286139 0.584453 0.256569
237 2 0.284861 0.567289 0.205089
238 1 0.124116 0.473752 0.41544
239 2 0.119009 0.44611 0.423006
240 2 0.130161 0.481678 0.440784
241 1 0.0235121 0.614667 0.396397
242 2 0.0286801 0.613808 0.424921
243 2 0.0270798 0.591549 0.375535
244 1 0.319182 0.153244 0.957402
245 2 0.317646 0.12072 0.952194
246 2 0.315345 0.161913 0.98694
247 1 0.354352 0.65005 0.83215
248 2 0.358119 0.633979 0.805783
249 2 0.360892 0.648807 0.857335
250 1 0.820393 0.412897 0.356685
251 2 0.815004 0.439876 0.348905
252 2 0.827057 0.406999 0.332542
253 1 0.23007 0.493586 0.615924
254 2 0.239462 0.482212 0.617208
255 2 0.227053 0.501934 0.646589
256 1 0.547978 0.949426 0.839008
257 2 0.546661 0.977394 0.856605
258 2 0.540509 0.928221 0.845458
259 1 0.440291 0.061119 0.521523
260 2 0.446847 0.0819791 0.507441
261 2 0.445224 0.0371615 0.537855
262 1 0.0114448 0.165041 0.657721
263 2 0.00419688 0.142469 0.653488
264 2 0.0149236 0.174616 0.627973
265 1 0.785767 0.193135 0.965266
266 2 0.781452 0.168388 0.948181
267 2 0.779664 0.203014 0.989755
268 1 0.603278 0.559279 0.259214
269 2 0.594142 0.550696 0.248719
270 2 0.603067 0.590421 0.271079
271 1 0.806534 0.513931 0.665261
272 2 0.812323 0.493907 0.64688
273 2 0.805017 0.500101 0.695166
274 1 0.847786 0.374294 0.442322
275 2 0.838827 0.359854 0.439039
276 2 0.852674 0.360435 0.467887
277 1 0.852444 0.438294 0.375134
278 2 0.850399 0.415311 0.351973
279 2 0.853962 0.423329 0.404485
280 1 0.343856 0.636134 0.501453
281 2 0.343028 0.604784 0.512437
282 2 0.353323 0.64202 0.492471
283 1 0.304315 0.308405 0.473533
284 2 0.31173 0.288664 0.484041
285 2 0.305336 0.314032 0.440854
286 1 0.0228014 0.366656 0.254071
287 2 0.0154884 0.361875 0.231844
288 2 0.0200383 0.354086 0.283538
289 1 0.254543 0.687232 0.116673
290 2 0.248216 0.683564 0.0911208
291 2 0.250245 0.676011 0.144601
292 1 0.132675 0.516967 0.334721
293 2 0.126381 0.519403 0.308933
294 2 0.128047 0.502041 0.360223
295 1 0.240701 0.438422 0.817163
296 2 0.244352 0.424531 0.844913
297 2 0.245039 0.424544 0.790528
298 1 0.25832 0.515374 0.293333
299 2 0.265339 0.536521 0.282539
300 2 0.262021 0.48441 0.293722
ITEM: TIMESTEP
3800
ITEM: NUMBER OF ATOMS
300
ITEM: BOX BOUNDS pp ff pp
0.0000000000000000e+00 1.0000000000000000e+02
0.0000000000000000e+00 3.0000000000000000e+01
0.0000000000000000e+00 3.0000000000000000e+01
ITEM: ATOMS id type xs ys zs
1 1 0.347646 0.701377 0.900305
2 2 0.348872 0.677204 0.877719
3 2 0.33791 0.704926 0.907034
4 1 0.5752 0.51297 0.236266
5 2 0.566652 0.510461 0.219153
6 2 0.575676 0.488511 0.258856
7 1 0.00828298 0.645544 0.416834
8 2 0.00980392 0.632411 0.447049
9 2 0.0139805 0.629686 0.394497
10 1 0.580302 0.423692 0.503044
11 2 0.575203 0.417246 0.530985
12 2 0.576044 0.407705 0.477468
13 1 0.821827 0.370576 0.450993
14 2 0.821895 0.379122 0.418775
15 2 0.816858 0.393616 0.468483
16 1 0.255988 0.445718 0.710095
17 2 0.255412 0.450072 0.677103
18 2 0.265545 0.441376 0.718894
19 1 0.422531 0.128551 0.488346
20 2 0.426325 0.0977113 0.488007
21 2 0.429274 0.149637 0.501044
22 1 0.154926 0.421338 0.304568
23 2 0.163725 0.41813 0.320079
24 2 0.156453 0.425031 0.271833
25 1 0.354167 0.743284 0.429761
26 2 0.353123 0.772411 0.413931
27 2 0.345153 0.729851 0.435044
28 1 0.603756 0.357569 0.289369
29 2 0.603553 0.375025 0.26098
30 2 0.611725 0.337435 0.289402
31 1 0.551701 0.494214 0.181019
32 2 0.542021 0.498325 0.173727
33 2 0.557118 0.496268 0.153074
34 1 0.15764 0.537236 0.395076
35 2 0.155383 0.566998 0.408065
36 2 0.149501 0.524181 0.380767
37 1 0.305688 0.405009 0.706472
38 2 0.306917 0.371955 0.70515
39 2 0.314005 0.420078 0.69573
40 1 0.348622 0.212413 0.480208
41 2 0.357606 0.202265 0.469651
42 2 0.344287 0.188023 0.497741
43 1 0.103472 0.407412 0.449754
44 2 0.10754 0.382508 0.432231
45 2 0.093589 0.402819 0.451925
46 1 0.571405 0.40062 0.419782
47 2 0.571718 0.395122 0.386922
48 2 0.574278 0.431912 0.426121
49 1 0.588118 0.459064 0.144133
50 2 0.593887 0.485196 0.151782
51 2 0.579646 0.469796 0.130046
52 1 0.806371 0.495377 0.741919
53 2 0.806016 0.513654 0.76977
54 2 0.810459 0.465712 0.748667
55 1 0.640764 0.946185 0.225122
56 2 0.649668 0.960619 0.22981
57 2 0.639672 0.921016 0.246671
58 1 0.244508 0.439053 0.530884
59 2 0.245356 0.448517 0.499048
60 2 0.235679 0.449093 0.542892
61 1 0.315712 0.103288 0.871858
62 2 0.316394 0.12695 0.895226
63 2 0.317849 0.116391 0.842048
64 1 0.32771 0.263943 0.505181
65 2 0.330582 0.288115 0.526043
66 2 0.335768 0.247829 0.493777
67 1 0.246974 0.660237 0.195653
68 2 0.237232 0.653196 0.198281
69 2 0.252345 0.63341 0.204075
70 1 0.842468 0.510367 0.393619
71 2 0.846448 0.481475 0.383603
72 2 0.849143 0.527021 0.412024
73 1 0.0367242 0.520687 0.268927
74 2 0.0299862 0.53469 0.248665
75 2 0.0372746 0.488013 0.26259
76 1 0.808572 0.665408 0.751658
77 2 0.800659 0.652051 0.73626
78 2 0.816235 0.667287 0.730325
79 1 0.30925 0.051232 0.942918
80 2 0.31073 0.0185904 0.938301
81 2 0.310536 0.0673107 0.914035
82 1 0.581894 0.576059 0.155677
83 2 0.580605 0.55602 0.181965
84 2 0.588622 0.599556 0.163167
85 1 0.282979 0.448631 0.731777
86 2 0.28518 0.469001 0.757121
87 2 0.290569 0.427499 0.726825
88 1 0.526323 0.87039 0.883225
89 2 0.517561 0.866686 0.898856
90 2 0.52979 0.840503 0.874041
91 1 0.275771 0.77596 0.133882
92 2 0.28147 0.802659 0.139999
93 2 0.280633 0.748399 0.143307
94 1 0.555584 0.814631 0.81016
95 2 0.552847 0.844175 0.797708
96 2 0.565561 0.81305 0.811786
97 1 0.593307 0.406734 0.219993
98 2 0.589419 0.417239 0.191134
99 2 0.589505 0.424694 0.245053
100 1 0.142328 0.501659 0.486004
101 2 0.139631 0.494092 0.517198
102 2 0.152115 0.496006 0.482162
103 1 0.277537 0.412405 0.627407
104 2 0.283579 0.415862 0.653742
105 2 0.282841 0.415892 0.599365
106 1 0.251501 0.433805 0.614832
107 2 0.260823 0.422017 0.617389
108 2 0.248488 0.431869 0.583106
109 1 0.220662 0.484695 0.539505
110 2 0.210848 0.484834 0.545899
111 2 0.225601 0.497429 0.565542
112 1 0.288902 0.71215 0.186174
113 2 0.289991 0.729088 0.214653
114 2 0.283215 0.685269 0.191575
115 1 0.580918 0.842722 0.793117
116 2 0.576656 0.871062 0.80342
117 2 0.590083 0.849205 0.781464
118 1 0.297844 0.628961 0.289201
119 2 0.306024 0.647974 0.291681
120 2 0.290283 0.647189 0.27722
121 1 0.0349264 0.525624 0.361527
122 2 0.0374418 0.522131 0.329455
123 2 0.038627 0.500112 0.379079
124 1 0.116106 0.341568 0.399978
125 2 0.11833 0.31029 0.408801
126 2 0.123688 0.354462 0.38248
127 1 0.796489 0.624273 0.820956
128 2 0.79235 0.649364 0.838022
129 2 0.800636 0.63611 0.793029
130 1 0.568037 0.509061 0.103845
131 2 0.564181 0.511786 0.0732093
132 2 0.57046 0.539327 0.115237
133 1 0.216897 0.474247 0.873064
134 2 0.221991 0.483481 0.845908
135 2 0.208233 0.490847 0.874285
136 1 0.260698 0.361198 0.532716
137 2 0.256105 0.390786 0.531579
138 2 0.255602 0.340663 0.55274
139 1 0.376572 0.688699 0.90801
140 2 0.366775 0.691558 0.914063
141 2 0.381486 0.713169 0.923631
142 1 0.259521 0.74303 0.221252
143 2 0.264234 0.757459 0.195637
144 2 0.252758 0.721372 0.209683
145 1 0.289582 0.357896 0.546156
146 2 0.293233 0.328989 0.534872
147 2 0.280087 0.36125 0.536249
148 1 0.372576 0.150428 0.473005
149 2 0.3756 0.122494 0.457866
150 2 0.380298 0.164304 0.489004
151 1 0.849816 0.505244 0.304691
152 2 0.841848 0.519509 0.318913
153 2 0.855393 0.490532 0.328123
154 1 0.331576 0.695421 0.453934
155 2 0.334169 0.664341 0.462328
156 2 0.326834 0.709843 0.479492
157 1 0.753949 0.969526 0.239803
158 2 0.762425 0.972956 0.257159
159 2 0.746307 0.981684 0.25753
160 1 0.777819 0.0846088 0.945994
161 2 0.768551 0.0799221 0.934384
162 2 0.780894 0.0570721 0.961735
163 1 0.583124 0.45243 0.3014
164 2 0.580287 0.425772 0.319035
165 2 0.591879 0.46363 0.31298
166 1 0.417661 0.184879 0.418769
167 2 0.424642 0.179385 0.395543
168 2 0.41816 0.161049 0.442017
169 1 0.0389236 0.429984 0.262784
170 2 0.0310441 0.4121 0.252712
171 2 0.0466093 0.409577 0.268978
172 1 0.138442 0.386684 0.381836
173 2 0.134135 0.412795 0.396775
174 2 0.143186 0.396929 0.354339
175 1 0.586071 0.478968 0.437691
176 2 0.583764 0.461591 0.465077
177 2 0.593159 0.501324 0.444988
178 1 0.366409 0.672123 0.474952
179 2 0.376394 0.672786 0.476688
180 2 0.363303 0.693802 0.451846
181 1 0.300669 0.332117 0.632836
182 2 0.299066 0.299439 0.628992
183 2 0.295861 0.348886 0.608896
184 1 0.911556 0.526439 0.161894
185 2 0.918224 0.55036 0.16859
186 2 0.911591 0.503959 0.186506
187 1 0.847752 0.386661 0.294288
188 2 0.846236 0.359985 0.27495
189 2 0.847311 0.414294 0.275705
190 1 0.325911 0.319774 0.581236
191 2 0.33053 0.347826 0.571899
192 2 0.318455 0.327183 0.602175
193 1 0.84292 0.450265 0.231518
194 2 0.838561 0.457976 0.202526
195 2 0.845332 0.47827 0.24771
196 1 0.206127 0.443522 0.777325
197 2 0.211335 0.429516 0.752556
198 2 0.207009 0.424944 0.804844
199 1 0.228752 0.417997 0.721613
200 2 0.226578 0.408342 0.690542
201 2 0.237999 0.43066 0.722409
202 1 0.242121 0.420817 0.871222
203 2 0.245636 0.397399 0.891848
204 2 0.233912 0.434551 0.884404
205 1 0.579321 0.368808 0.330339
206 2 0.572111 0.350212 0.31664
207 2 0.588151 0.360413 0.317132
208 1 0.751007 0.0793066 0.892001
209 2 0.753294 0.081761 0.859644
210 2 0.741152 0.0832882 0.896011
211 1 0.56461 0.923745 0.798818
212 2 0.558271 0.92478 0.824578
213 2 0.562854 0.949592 0.7786
214 1 0.260181 0.589196 0.241989
215 2 0.258505 0.571632 0.269764
216 2 0.269289 0.582039 0.230234
217 1 0.193725 0.525261 0.851513
218 2 0.184383 0.535751 0.85711
219 2 0.194248 0.511231 0.821326
220 1 0.805174 0.54001 0.819459
221 2 0.801611 0.571155 0.819433
222 2 0.809356 0.533459 0.849021
223 1 0.170379 0.479213 0.45649
224 2 0.176559 0.45948 0.439246
225 2 0.165768 0.500173 0.435621
226 1 0.274048 0.671732 0.250668
227 2 0.266565 0.649638 0.249753
228 2 0.270289 0.702618 0.251122
229 1 0.795093 0.618553 0.671324
230 2 0.799434 0.593532 0.654723
231 2 0.785943 0.623902 0.658983
232 1 0.534994 0.789883 0.866757
233 2 0.543783 0.794114 0.85143
234 2 0.53065 0.762028 0.855553
235 1 0.286528 0.549033 0.245809
236 2 0.2897 0.572115 0.267409
237 2 0.293871 0.541861 0.224348
238 1 0.123228 0.461763 0.418865
239 2 0.114961 0.448739 0.432355
240 2 0.129664 0.469865 0.443058
241 1 0.029278 0.60744 0.377148
242 2 0.0291119 0.623326 0.347849
243 2 0.0326511 0.576373 0.372731
244 1 0.316156 0.133238 0.965398
245 2 0.315954 0.100257 0.960613
246 2 0.310053 0.141231 0.990564
247 1 0.355398 0.651156 0.834423
248 2 0.35802 0.620642 0.82424
249 2 0.363622 0.669032 0.84075
250 1 0.823909 0.399509 0.363894
251 2 0.82577 0.432042 0.367656
252 2 0.831802 0.384745 0.34972
253 1 0.231509 0.494251 0.620843
254 2 0.239261 0.473275 0.618994
255 2 0.231513 0.509303 0.650584
256 1 0.545256 0.936706 0.865047
257 2 0.544663 0.956664 0.891672
258 2 0.538661 0.91184 0.868145
259 1 0.43177 0.0431232 0.509407
260 2 0.427945 0.0311815 0.537797
261 2 0.439134 0.0231305 0.498976
262 1 0.0127773 0.162938 0.660819
263 2 0.004999 0.143912 0.669587
264 2 0.0121274 0.170419 0.628408
265 1 0.776433 0.181478 0.97071
266 2 0.781752 0.153627 0.975311
267 2 0.774435 0.185174 0.938259
268 1 0.595976 0.5771 0.247305
269 2 0.589958 0.55061 0.244673
270 2 0.594391 0.592177 0.27656
271 1 0.811855 0.540166 0.668558
272 2 0.816958 0.520292 0.647898
273 2 0.808264 0.522173 0.693936
274 1 0.850237 0.35456 0.431927
275 2 0.840718 0.364151 0.435424
276 2 0.852367 0.331169 0.454589
277 1 0.851907 0.429039 0.376263
278 2 0.851923 0.413941 0.346545
279 2 0.855342 0.407993 0.399438
280 1 0.346241 0.633085 0.517777
281 2 0.34983 0.617393 0.544643
282 2 0.353736 0.648187 0.501687
283 1 0.300199 0.280827 0.512097
284 2 0.310093 0.282929 0.507746
285 2 0.295853 0.272344 0.4833
286 1 0.0198286 0.374025 0.234102
287 2 0.0196809 0.350438 0.210553
288 2 0.0106879 0.377258 0.247228
289 1 0.252322 0.674387 0.0876851
290 2 0.250876 0.704923 0.100151
291 2 0.252802 0.65233 0.112626
292 1 0.135265 0.512478 0.349245
293 2 0.13495 0.498405 0.319046
294 2 0.129043 0.496338 0.36975
295 1 0.23633 0.473495 0.804012
296 2 0.240944 0.460764 0.830704
297 2 0.240454 0.461086 0.776296
298 1 0.264908 0.508839 0.306793
299 2 0.271711 0.500977 0.283662
300 2 0.269421 0.512472 0.336317
ITEM: TIMESTEP
3900
ITEM: NUMBER OF ATOMS
300
ITEM: BOX BOUNDS pp ff pp
0.0000000000000000e+00 1.0000000000000000e+02
0.0000000000000000e+00 3.0000000000000000e+01
0.0000000000000000e+00 3.0000000000000000e+01
ITEM: ATOMS id type xs ys zs
1 1 0.34541 0.685825 0.924642
2 2 0.34824 0.668267 0.897924
3 2 0.335517 0.690602 0.92372
4 1 0.576525 0.51133 0.247676
5 2 0.570406 0.504227 0.222286
6 2 0.576055 0.486943 0.270345
7 1 0.0103401 0.639601 0.400086
8 2 0.0107721 0.672902 0.400399
9 2 0.0185803 0.627428 0.385647
10 1 0.582271 0.426932 0.504917
11 2 0.572947 0.418363 0.513391
12 2 0.583592 0.421889 0.472263
13 1 0.826109 0.379464 0.455242
14 2 0.824144 0.377656 0.422609
15 2 0.826356 0.41143 0.464654
16 1 0.254628 0.404639 0.716615
17 2 0.256152 0.407151 0.683767
18 2 0.263402 0.406176 0.73253
19 1 0.422025 0.130872 0.487943
20 2 0.420493 0.0987256 0.480756
21 2 0.431554 0.13532 0.497018
22 1 0.146678 0.426602 0.303035
23 2 0.141269 0.453066 0.312291
24 2 0.15345 0.435922 0.28035
25 1 0.351084 0.710922 0.424193
26 2 0.342662 0.726264 0.414833
27 2 0.348946 0.687621 0.44694
28 1 0.586608 0.338474 0.259392
29 2 0.59404 0.35731 0.247451
30 2 0.58722 0.307864 0.246354
31 1 0.558399 0.482747 0.18227
32 2 0.548614 0.47587 0.182372
33 2 0.561812 0.48217 0.150943
34 1 0.154659 0.548447 0.395741
35 2 0.158687 0.547663 0.365241
36 2 0.146208 0.530628 0.395941
37 1 0.300842 0.422212 0.683981
38 2 0.303325 0.389933 0.6848
39 2 0.307354 0.438766 0.664851
40 1 0.345798 0.20797 0.482578
41 2 0.355793 0.207273 0.483346
42 2 0.342593 0.196304 0.453238
43 1 0.107772 0.401888 0.441689
44 2 0.110175 0.372777 0.427566
45 2 0.100273 0.397269 0.463254
46 1 0.579533 0.411298 0.414901
47 2 0.579815 0.389186 0.389975
48 2 0.582094 0.441391 0.403384
49 1 0.600434 0.471943 0.145029
50 2 0.598936 0.504449 0.139593
51 2 0.597822 0.454672 0.117881
52 1 0.809627 0.527403 0.742846
53 2 0.808645 0.53288 0.775563
54 2 0.812831 0.49623 0.737814
55 1 0.641872 0.946163 0.250623
56 2 0.638596 0.936124 0.280474
57 2 0.638134 0.976317 0.243799
58 1 0.241351 0.445474 0.521146
59 2 0.237833 0.434543 0.491921
60 2 0.234781 0.466645 0.534686
61 1 0.316636 0.0812346 0.878543
62 2 0.316769 0.10454 0.902371
63 2 0.317703 0.0957431 0.848745
64 1 0.326041 0.261736 0.526178
65 2 0.32663 0.292904 0.537831
66 2 0.335248 0.24915 0.522887
67 1 0.250595 0.648118 0.18011
68 2 0.241337 0.642602 0.168776
69 2 0.253429 0.622668 0.199455
70 1 0.843538 0.505281 0.376152
71 2 0.84733 0.476148 0.386281
72 2 0.850721 0.528471 0.376407
73 1 0.0473442 0.482672 0.310526
74 2 0.0545601 0.50476 0.30384
75 2 0.048363 0.456173 0.290591
76 1 0.805152 0.642555 0.756667
77 2 0.798471 0.654357 0.734852
78 2 0.812378 0.626353 0.740287
79 1 0.303615 0.037857 0.945065
80 2 0.302724 0.00530256 0.938545
81 2 0.309737 0.051846 0.922726
82 1 0.582792 0.558061 0.144091
83 2 0.587899 0.562012 0.172476
84 2 0.575424 0.58055 0.142645
85 1 0.284218 0.442419 0.750654
86 2 0.289805 0.457548 0.773792
87 2 0.290151 0.429842 0.726952
88 1 0.52752 0.86418 0.905931
89 2 0.521658 0.862405 0.932877
90 2 0.530177 0.833434 0.896584
91 1 0.278445 0.759623 0.121867
92 2 0.279236 0.758947 0.0886451
93 2 0.284768 0.737472 0.135139
94 1 0.548545 0.834326 0.80567
95 2 0.545566 0.865126 0.813665
96 2 0.557267 0.835888 0.789441
97 1 0.597461 0.424606 0.222012
98 2 0.598612 0.442697 0.194279
99 2 0.588889 0.433078 0.236939
100 1 0.142193 0.493058 0.518593
101 2 0.143061 0.503881 0.549988
102 2 0.150224 0.502449 0.501091
103 1 0.283796 0.428747 0.613199
104 2 0.287224 0.428591 0.644513
105 2 0.289157 0.407505 0.594745
106 1 0.257534 0.459293 0.613182
107 2 0.266442 0.448895 0.624201
108 2 0.257565 0.459887 0.579854
109 1 0.225231 0.509569 0.559378
110 2 0.217226 0.526323 0.570258
111 2 0.230021 0.496044 0.585325
112 1 0.291431 0.681795 0.141813
113 2 0.288375 0.665715 0.114449
114 2 0.286588 0.66981 0.168399
115 1 0.570117 0.868376 0.765461
116 2 0.572151 0.888788 0.790927
117 2 0.578667 0.856919 0.752514
118 1 0.292647 0.611777 0.298543
119 2 0.300839 0.629382 0.306001
120 2 0.28564 0.632159 0.286289
121 1 0.0238198 0.513948 0.362367
122 2 0.0313457 0.4988 0.346482
123 2 0.0203661 0.494033 0.386491
124 1 0.11507 0.327018 0.406385
125 2 0.114492 0.295626 0.395342
126 2 0.121817 0.343773 0.38837
127 1 0.794734 0.609808 0.835295
128 2 0.788474 0.626199 0.855467
129 2 0.797033 0.629083 0.809201
130 1 0.568902 0.497002 0.0958673
131 2 0.569222 0.501957 0.0629215
132 2 0.57529 0.517767 0.11092
133 1 0.219594 0.493165 0.84503
134 2 0.220496 0.503169 0.813376
135 2 0.210293 0.482104 0.85029
136 1 0.257307 0.36019 0.531452
137 2 0.254454 0.38953 0.51881
138 2 0.252095 0.353888 0.559192
139 1 0.376591 0.699493 0.907673
140 2 0.368235 0.705527 0.924963
141 2 0.384218 0.695032 0.928765
142 1 0.259435 0.741845 0.186024
143 2 0.264261 0.751156 0.158352
144 2 0.254861 0.71268 0.180731
145 1 0.288137 0.35395 0.567119
146 2 0.292551 0.330368 0.548718
147 2 0.278688 0.357932 0.55696
148 1 0.372077 0.201185 0.458601
149 2 0.38002 0.212202 0.475597
150 2 0.375158 0.184511 0.431626
151 1 0.856435 0.488299 0.289289
152 2 0.849312 0.48603 0.312576
153 2 0.865352 0.491608 0.304011
154 1 0.323194 0.693107 0.457466
155 2 0.325956 0.680001 0.486698
156 2 0.316273 0.716613 0.462603
157 1 0.759056 0.969476 0.245043
158 2 0.756008 0.960501 0.214591
159 2 0.769051 0.969539 0.24607
160 1 0.782752 0.0653145 0.9415
161 2 0.774865 0.0649812 0.921013
162 2 0.780646 0.047633 0.968872
163 1 0.577792 0.441093 0.309826
164 2 0.57697 0.410527 0.322837
165 2 0.58523 0.457433 0.324972
166 1 0.408872 0.197843 0.443374
167 2 0.417367 0.213419 0.435199
168 2 0.41096 0.171484 0.462554
169 1 0.0485368 0.417056 0.24964
170 2 0.0390943 0.406135 0.248565
171 2 0.0543012 0.397451 0.230731
172 1 0.131052 0.383407 0.367858
173 2 0.133059 0.402239 0.394535
174 2 0.135951 0.395422 0.341399
175 1 0.580825 0.514206 0.412459
176 2 0.578262 0.546425 0.412728
177 2 0.585538 0.50664 0.440868
178 1 0.373363 0.68773 0.480076
179 2 0.377863 0.714093 0.493901
180 2 0.367785 0.697778 0.4543
181 1 0.299697 0.327845 0.644026
182 2 0.302143 0.296142 0.637735
183 2 0.296124 0.341969 0.616281
184 1 0.912161 0.550692 0.126594
185 2 0.903908 0.555287 0.108341
186 2 0.920199 0.55902 0.108597
187 1 0.842189 0.388606 0.297578
188 2 0.842814 0.35662 0.28843
189 2 0.841705 0.40785 0.270409
190 1 0.331498 0.345598 0.56244
191 2 0.328023 0.376803 0.56064
192 2 0.339211 0.344494 0.583624
193 1 0.836463 0.44312 0.232646
194 2 0.827993 0.460249 0.228104
195 2 0.844026 0.464361 0.237582
196 1 0.202866 0.435533 0.775234
197 2 0.20875 0.437767 0.748374
198 2 0.207639 0.418756 0.799245
199 1 0.228104 0.43438 0.721268
200 2 0.227295 0.439149 0.688388
201 2 0.237513 0.425917 0.728734
202 1 0.245757 0.442077 0.83102
203 2 0.24317 0.420688 0.806953
204 2 0.237796 0.460261 0.839756
205 1 0.574946 0.360411 0.339567
206 2 0.56593 0.34599 0.339652
207 2 0.579763 0.352464 0.311459
208 1 0.754377 0.103508 0.927511
209 2 0.744935 0.114201 0.92501
210 2 0.759457 0.123527 0.948092
211 1 0.574956 0.926598 0.836682
212 2 0.565304 0.926411 0.845396
213 2 0.580574 0.933157 0.863467
214 1 0.262677 0.59086 0.232828
215 2 0.261322 0.577175 0.262885
216 2 0.269873 0.574358 0.216598
217 1 0.190989 0.457714 0.858083
218 2 0.181625 0.451502 0.868
219 2 0.192037 0.448806 0.826152
220 1 0.806554 0.525105 0.833107
221 2 0.803047 0.555772 0.838938
222 2 0.80265 0.503857 0.85525
223 1 0.16439 0.504968 0.467429
224 2 0.16247 0.473023 0.460379
225 2 0.162104 0.523903 0.441075
226 1 0.279363 0.671843 0.230773
227 2 0.270454 0.656714 0.23138
228 2 0.27808 0.70481 0.23323
229 1 0.796568 0.627411 0.64594
230 2 0.802277 0.600455 0.650674
231 2 0.794759 0.631172 0.613373
232 1 0.532365 0.785054 0.857581
233 2 0.538464 0.806641 0.842354
234 2 0.526674 0.769732 0.834855
235 1 0.289606 0.535219 0.266797
236 2 0.291993 0.564185 0.281247
237 2 0.297959 0.519366 0.257612
238 1 0.132263 0.45796 0.439654
239 2 0.123401 0.442524 0.439366
240 2 0.133322 0.474667 0.468281
241 1 0.030914 0.604083 0.359192
242 2 0.0391849 0.600194 0.340864
243 2 0.0261373 0.574901 0.361641
244 1 0.313964 0.116299 0.974948
245 2 0.305879 0.0970784 0.971029
246 2 0.316787 0.115852 0.00692236
247 1 0.354233 0.648924 0.85059
248 2 0.352385 0.648177 0.817839
249 2 0.362644 0.666047 0.856233
250 1 0.82456 0.405324 0.363844
251 2 0.821528 0.436469 0.357605
252 2 0.82931 0.393219 0.337125
253 1 0.234663 0.479926 0.645201
254 2 0.243432 0.470233 0.632444
255 2 0.236255 0.497655 0.672925
256 1 0.547405 0.921735 0.875919
257 2 0.542434 0.948878 0.885909
258 2 0.542733 0.894467 0.8871
259 1 0.421871 0.037532 0.488489
260 2 0.427836 0.0246812 0.465025
261 2 0.415459 0.0141867 0.498946
262 1 0.0140444 0.160575 0.663746
263 2 0.00737526 0.148843 0.685638
264 2 0.00958348 0.165376 0.634302
265 1 0.770943 0.166352 0.985773
266 2 0.772346 0.171198 0.0184189
267 2 0.779631 0.170174 0.969714
268 1 0.587732 0.599511 0.259134
269 2 0.585215 0.567253 0.259467
270 2 0.586604 0.612286 0.289691
271 1 0.81175 0.560138 0.657594
272 2 0.817868 0.54291 0.637634
273 2 0.8109 0.544397 0.68684
274 1 0.853722 0.350494 0.439609
275 2 0.844246 0.360389 0.443533
276 2 0.855757 0.326116 0.461308
277 1 0.855583 0.420713 0.379175
278 2 0.84878 0.413074 0.355969
279 2 0.857267 0.39408 0.398418
280 1 0.346753 0.659276 0.506142
281 2 0.346242 0.626634 0.512673
282 2 0.356337 0.668461 0.503671
283 1 0.301002 0.270141 0.559449
284 2 0.310867 0.267404 0.554722
285 2 0.296307 0.245679 0.543084
286 1 0.0240533 0.382386 0.225407
287 2 0.0236813 0.36438 0.197383
288 2 0.0148521 0.392786 0.233298
289 1 0.259726 0.677223 0.0954379
290 2 0.254438 0.704999 0.0900641
291 2 0.257606 0.665266 0.12574
292 1 0.13603 0.489759 0.362057
293 2 0.128778 0.512277 0.357619
294 2 0.135059 0.475768 0.392139
295 1 0.229425 0.530018 0.765468
296 2 0.237309 0.548146 0.75588
297 2 0.230958 0.498028 0.757618
298 1 0.263885 0.545388 0.306221
299 2 0.273026 0.53415 0.298711
300 2 0.263267 0.550827 0.339043
ITEM: TIMESTEP
4000
ITEM: NUMBER OF ATOMS
300
ITEM: BOX BOUNDS pp ff pp
0.0000000000000000e+00 1.0000000000000000e+02
0.0000000000000000e+00 3.0000000000000000e+01
0.0000000000000000e+00 3.0000000000000000e+01
ITEM: ATOMS id type xs ys zs
1 1 0.348257 0.67795 0.956946
2 2 0.347467 0.669002 0.924944
3 2 0.344485 0.653886 0.976283
4 1 0.573593 0.522892 0.247506
5 2 0.566465 0.505932 0.231414
6 2 0.575074 0.50931 0.277544
7 1 0.0114217 0.66247 0.392976
8 2 0.0157088 0.681505 0.369639
9 2 0.0127306 0.630328 0.3853
10 1 0.583742 0.451056 0.482971
11 2 0.591238 0.456723 0.504292
12 2 0.583018 0.418328 0.477128
13 1 0.829625 0.376788 0.447989
14 2 0.830275 0.400734 0.424902
15 2 0.820008 0.37114 0.455165
16 1 0.248398 0.385249 0.72422
17 2 0.255337 0.407526 0.715291
18 2 0.252101 0.365296 0.747897
19 1 0.415511 0.135469 0.493433
20 2 0.413994 0.105078 0.480707
21 2 0.425304 0.140207 0.498245
22 1 0.138079 0.433363 0.309418
23 2 0.14193 0.458025 0.327805
24 2 0.145449 0.417439 0.293481
25 1 0.357687 0.712284 0.394991
26 2 0.356661 0.699678 0.364324
27 2 0.348663 0.719191 0.407584
28 1 0.573115 0.353999 0.241526
29 2 0.579311 0.380148 0.242441
30 2 0.568481 0.353069 0.212002
31 1 0.568193 0.44987 0.173151
32 2 0.577076 0.452538 0.188226
33 2 0.569188 0.457127 0.140787
34 1 0.160471 0.558192 0.401021
35 2 0.164786 0.563634 0.371447
36 2 0.151444 0.544606 0.396412
37 1 0.300152 0.418271 0.693796
38 2 0.301087 0.385241 0.69057
39 2 0.308702 0.433048 0.68482
40 1 0.350418 0.211029 0.48279
41 2 0.358816 0.229126 0.482927
42 2 0.347689 0.204872 0.451319
43 1 0.104022 0.40384 0.455474
44 2 0.106465 0.375838 0.439328
45 2 0.101817 0.396646 0.487181
46 1 0.58593 0.385427 0.418652
47 2 0.58053 0.374906 0.392645
48 2 0.591779 0.410742 0.409158
49 1 0.600934 0.482571 0.175225
50 2 0.596345 0.510763 0.166152
51 2 0.608861 0.477445 0.155561
52 1 0.816323 0.543275 0.747347
53 2 0.825174 0.528047 0.750309
54 2 0.810733 0.536716 0.774196
55 1 0.642254 0.947937 0.278436
56 2 0.641982 0.980421 0.271017
57 2 0.6331 0.93493 0.275132
58 1 0.244494 0.440378 0.523899
59 2 0.24297 0.438004 0.491041
60 2 0.235933 0.448699 0.538982
61 1 0.3158 0.0908498 0.881314
62 2 0.317319 0.0981273 0.913447
63 2 0.319337 0.115582 0.862329
64 1 0.330045 0.243395 0.548106
65 2 0.332521 0.275685 0.54869
66 2 0.336089 0.227157 0.527092
67 1 0.249451 0.638601 0.150866
68 2 0.240112 0.627873 0.156055
69 2 0.255183 0.630266 0.176879
70 1 0.849834 0.491924 0.355525
71 2 0.851395 0.459894 0.363149
72 2 0.849018 0.509722 0.383578
73 1 0.0443404 0.419001 0.34609
74 2 0.0511852 0.41506 0.370069
75 2 0.0485582 0.413521 0.316368
76 1 0.791333 0.597514 0.736411
77 2 0.792701 0.619852 0.712093
78 2 0.799054 0.576337 0.737011
79 1 0.2962 0.0388041 0.94404
80 2 0.287138 0.0254319 0.939588
81 2 0.300236 0.0459738 0.914397
82 1 0.589396 0.55756 0.15516
83 2 0.58344 0.571087 0.132054
84 2 0.588403 0.574266 0.183814
85 1 0.27642 0.435325 0.739291
86 2 0.276064 0.45918 0.762542
87 2 0.284638 0.439275 0.720712
88 1 0.538585 0.847912 0.920042
89 2 0.54066 0.827138 0.945174
90 2 0.533971 0.831146 0.89568
91 1 0.276563 0.753039 0.118307
92 2 0.278975 0.763149 0.0875789
93 2 0.281973 0.726149 0.126232
94 1 0.54183 0.843383 0.78833
95 2 0.546605 0.87121 0.797466
96 2 0.54419 0.835924 0.756809
97 1 0.590396 0.425656 0.240876
98 2 0.59811 0.437892 0.223546
99 2 0.585318 0.450745 0.254843
100 1 0.144756 0.465665 0.527013
101 2 0.137305 0.481389 0.542729
102 2 0.151549 0.487954 0.516933
103 1 0.282236 0.4299 0.608987
104 2 0.288948 0.44149 0.630808
105 2 0.284357 0.398169 0.601621
106 1 0.257777 0.483842 0.59736
107 2 0.266551 0.469297 0.60401
108 2 0.254735 0.474976 0.566869
109 1 0.228351 0.498293 0.564006
110 2 0.226685 0.53049 0.557401
111 2 0.231564 0.495079 0.595408
112 1 0.294503 0.660453 0.124927
113 2 0.285244 0.649921 0.118021
114 2 0.296014 0.659264 0.157856
115 1 0.559363 0.912004 0.783448
116 2 0.5666 0.91254 0.806445
117 2 0.561201 0.935266 0.760374
118 1 0.292553 0.639827 0.283865
119 2 0.300541 0.656588 0.294871
120 2 0.28823 0.656878 0.259112
121 1 0.0300572 0.496321 0.340666
122 2 0.0351222 0.468425 0.347585
123 2 0.0287165 0.49872 0.307721
124 1 0.109831 0.321844 0.402591
125 2 0.103682 0.317866 0.376609
126 2 0.119038 0.328769 0.391573
127 1 0.797219 0.612696 0.82323
128 2 0.795045 0.645023 0.82691
129 2 0.794712 0.602866 0.792495
130 1 0.572289 0.479234 0.079047
131 2 0.566007 0.502616 0.067827
132 2 0.575222 0.459968 0.0536621
133 1 0.212945 0.482248 0.823718
134 2 0.213443 0.455132 0.804403
135 2 0.206416 0.476985 0.848411
136 1 0.261786 0.367054 0.573395
137 2 0.258827 0.365189 0.605181
138 2 0.257825 0.394192 0.55924
139 1 0.371078 0.695503 0.896843
140 2 0.366969 0.700107 0.926882
141 2 0.380863 0.7022 0.898359
142 1 0.264499 0.733154 0.200409
143 2 0.267384 0.741337 0.169561
144 2 0.255961 0.748895 0.207718
145 1 0.287775 0.339957 0.585942
146 2 0.29128 0.311314 0.573522
147 2 0.279704 0.349402 0.568676
148 1 0.373716 0.25896 0.449484
149 2 0.376022 0.290618 0.442421
150 2 0.381874 0.24311 0.460458
151 1 0.856329 0.50271 0.266132
152 2 0.856041 0.503643 0.299439
153 2 0.862509 0.526408 0.254943
154 1 0.332642 0.707147 0.440108
155 2 0.334484 0.693557 0.469919
156 2 0.322982 0.715535 0.438144
157 1 0.765674 0.967545 0.244381
158 2 0.76262 0.978057 0.27433
159 2 0.757803 0.956762 0.226878
160 1 0.780539 0.0537451 0.935639
161 2 0.771732 0.0546615 0.9514
162 2 0.779797 0.0699081 0.906592
163 1 0.579713 0.470287 0.315316
164 2 0.579303 0.43705 0.317433
165 2 0.577604 0.483613 0.345049
166 1 0.391306 0.179498 0.47289
167 2 0.386743 0.154324 0.457205
168 2 0.39941 0.168036 0.488698
169 1 0.0574401 0.400819 0.262504
170 2 0.0503551 0.403248 0.239106
171 2 0.0662298 0.410298 0.249743
172 1 0.132608 0.369243 0.372852
173 2 0.133308 0.390636 0.398308
174 2 0.133262 0.385932 0.344079
175 1 0.57783 0.491821 0.410867
176 2 0.581419 0.474239 0.436536
177 2 0.570505 0.51185 0.421536
178 1 0.367454 0.72007 0.475844
179 2 0.36871 0.753081 0.477804
180 2 0.365903 0.711393 0.444078
181 1 0.302087 0.334803 0.658007
182 2 0.306088 0.304346 0.655628
183 2 0.296301 0.340594 0.631445
184 1 0.908619 0.579745 0.0959973
185 2 0.917514 0.565521 0.101444
186 2 0.901385 0.560125 0.108027
187 1 0.835675 0.360521 0.301448
188 2 0.833026 0.385189 0.280842
189 2 0.830877 0.332577 0.292823
190 1 0.341811 0.325624 0.538092
191 2 0.338418 0.346331 0.514546
192 2 0.351125 0.316123 0.530552
193 1 0.837231 0.437782 0.258117
194 2 0.831456 0.456521 0.238381
195 2 0.84538 0.455048 0.266784
196 1 0.203054 0.410181 0.76464
197 2 0.200402 0.431422 0.74052
198 2 0.211844 0.396253 0.756991
199 1 0.224142 0.445807 0.706467
200 2 0.222381 0.459981 0.676874
201 2 0.231819 0.424617 0.703756
202 1 0.240746 0.509521 0.814809
203 2 0.242206 0.483485 0.794571
204 2 0.231823 0.506694 0.829593
205 1 0.574097 0.379052 0.328851
206 2 0.564439 0.373438 0.335419
207 2 0.576789 0.36185 0.301747
208 1 0.759997 0.107211 0.958855
209 2 0.766975 0.125271 0.974473
210 2 0.752474 0.100829 0.979868
211 1 0.576306 0.905301 0.854783
212 2 0.567927 0.910026 0.872351
213 2 0.58327 0.891492 0.874319
214 1 0.262417 0.597515 0.222525
215 2 0.262831 0.596829 0.255823
216 2 0.259917 0.567321 0.211126
217 1 0.195456 0.416235 0.864032
218 2 0.192051 0.391033 0.882664
219 2 0.200984 0.404145 0.839026
220 1 0.805347 0.52776 0.829271
221 2 0.80225 0.559393 0.831242
222 2 0.806922 0.515854 0.85996
223 1 0.1619 0.529952 0.49105
224 2 0.170607 0.537613 0.505539
225 2 0.162279 0.537972 0.45872
226 1 0.281265 0.659457 0.206245
227 2 0.273826 0.637261 0.208138
228 2 0.277538 0.690261 0.209053
229 1 0.802463 0.65305 0.668672
230 2 0.808024 0.628307 0.656209
231 2 0.807203 0.682069 0.664275
232 1 0.527159 0.794338 0.854321
233 2 0.531725 0.814187 0.832288
234 2 0.518028 0.786606 0.843139
235 1 0.284366 0.513343 0.280896
236 2 0.288572 0.539802 0.266253
237 2 0.288778 0.4855 0.269963
238 1 0.132288 0.440839 0.439309
239 2 0.122562 0.433281 0.441062
240 2 0.136676 0.433853 0.468435
241 1 0.0246703 0.595542 0.353472
242 2 0.0346212 0.598679 0.354498
243 2 0.022225 0.563247 0.354778
244 1 0.314561 0.0998499 0.978096
245 2 0.309104 0.0747405 0.965859
246 2 0.313851 0.100109 0.0113443
247 1 0.354237 0.640182 0.843727
248 2 0.355127 0.64585 0.811014
249 2 0.361331 0.657024 0.860109
250 1 0.824941 0.426464 0.356216
251 2 0.828608 0.448655 0.334554
252 2 0.828578 0.396223 0.349175
253 1 0.234896 0.520705 0.648631
254 2 0.244014 0.511124 0.638857
255 2 0.235622 0.538191 0.676906
256 1 0.551097 0.921125 0.883022
257 2 0.544472 0.935119 0.862345
258 2 0.54719 0.893339 0.896038
259 1 0.412131 0.0553045 0.45532
260 2 0.407016 0.0386159 0.478598
261 2 0.413215 0.0361185 0.428302
262 1 0.0151946 0.158026 0.666765
263 2 0.0113744 0.156448 0.69753
264 2 0.00775603 0.159699 0.64455
265 1 0.771098 0.16633 0.0120137
266 2 0.772653 0.199121 0.0150123
267 2 0.769526 0.153107 0.0421601
268 1 0.580317 0.605727 0.226326
269 2 0.576847 0.575482 0.234238
270 2 0.578624 0.626737 0.251582
271 1 0.814629 0.567896 0.66005
272 2 0.815874 0.542863 0.638435
273 2 0.814924 0.555985 0.691167
274 1 0.858864 0.349994 0.45119
275 2 0.849207 0.348765 0.459759
276 2 0.864474 0.339492 0.476708
277 1 0.854684 0.405563 0.371447
278 2 0.8517 0.386723 0.345811
279 2 0.854595 0.387372 0.399377
280 1 0.345543 0.680278 0.520214
281 2 0.349969 0.654195 0.534816
282 2 0.351905 0.694459 0.498758
283 1 0.301842 0.260467 0.576312
284 2 0.311689 0.256416 0.572144
285 2 0.296967 0.23537 0.561576
286 1 0.0358091 0.393486 0.2112
287 2 0.0337427 0.361196 0.215787
288 2 0.0274367 0.409736 0.202941
289 1 0.269145 0.645209 0.0910423
290 2 0.263875 0.644816 0.0627156
291 2 0.26289 0.644892 0.117049
292 1 0.138646 0.503617 0.379434
293 2 0.1302 0.515199 0.365854
294 2 0.136424 0.484127 0.405441
295 1 0.227155 0.544642 0.738215
296 2 0.23434 0.546282 0.761341
297 2 0.219739 0.52516 0.749186
298 1 0.264288 0.582549 0.308737
299 2 0.268358 0.552111 0.309522
300 2 0.271534 0.605504 0.30966
ITEM: TIMESTEP
4100
ITEM: NUMBER OF ATOMS
300
ITEM: BOX BOUNDS pp ff pp
0.0000000000000000e+00 1.0000000000000000e+02
0.0000000000000000e+00 3.0000000000000000e+01
0.0000000000000000e+00 3.0000000000000000e+01
ITEM: ATOMS id type xs ys zs
1 1 0.352191 0.652907 0.953096
2 2 0.352233 0.649735 0.919914
3 2 0.349391 0.624074 0.966975
4 1 0.568666 0.516214 0.236987
5 2 0.569516 0.494087 0.212219
6 2 0.571632 0.502214 0.265577
7 1 0.013367 0.66011 0.370033
8 2 0.0155565 0.629361 0.359434
9 2 0.0131961 0.680977 0.344046
10 1 0.587012 0.439573 0.461775
11 2 0.595801 0.438318 0.477627
12 2 0.584245 0.40876 0.453023
13 1 0.827302 0.388775 0.452504
14 2 0.82875 0.395267 0.420167
15 2 0.817494 0.388344 0.45899
16 1 0.251416 0.377862 0.714506
17 2 0.260088 0.394463 0.714478
18 2 0.252104 0.351594 0.734898
19 1 0.411668 0.141112 0.487986
20 2 0.409164 0.112477 0.473103
21 2 0.421621 0.143031 0.490575
22 1 0.142 0.442023 0.313408
23 2 0.141385 0.470394 0.330786
24 2 0.138163 0.446682 0.28298
25 1 0.363058 0.727758 0.385576
26 2 0.364013 0.732569 0.352746
27 2 0.354181 0.713793 0.391942
28 1 0.567182 0.388315 0.256219
29 2 0.576788 0.394926 0.24973
30 2 0.561366 0.409159 0.238872
31 1 0.572541 0.458755 0.173865
32 2 0.579471 0.446112 0.194305
33 2 0.576324 0.46138 0.143121
34 1 0.162562 0.526484 0.43544
35 2 0.167604 0.504007 0.417456
36 2 0.152803 0.524157 0.428544
37 1 0.300738 0.437598 0.694622
38 2 0.297432 0.406795 0.688231
39 2 0.309558 0.435864 0.710235
40 1 0.353614 0.231127 0.501708
41 2 0.360292 0.238648 0.478065
42 2 0.355883 0.201549 0.515087
43 1 0.104855 0.404823 0.457551
44 2 0.104193 0.37462 0.443621
45 2 0.0958843 0.419541 0.456957
46 1 0.586632 0.362374 0.404913
47 2 0.579586 0.369994 0.382522
48 2 0.592807 0.339508 0.392082
49 1 0.60683 0.480003 0.174036
50 2 0.602748 0.508174 0.162529
51 2 0.616554 0.479349 0.166294
52 1 0.821798 0.540814 0.73274
53 2 0.814659 0.54587 0.755529
54 2 0.826417 0.511916 0.738979
55 1 0.641364 0.951409 0.301606
56 2 0.645615 0.926192 0.318173
57 2 0.647571 0.962033 0.277727
58 1 0.252386 0.453626 0.523486
59 2 0.256332 0.459626 0.493451
60 2 0.242951 0.464644 0.524244
61 1 0.313581 0.0902778 0.898951
62 2 0.316638 0.0921122 0.930636
63 2 0.320234 0.105488 0.879252
64 1 0.322756 0.265113 0.527706
65 2 0.325647 0.292349 0.544332
66 2 0.330818 0.248249 0.517481
67 1 0.255763 0.63007 0.137857
68 2 0.2594 0.660485 0.14411
69 2 0.254549 0.613606 0.166557
70 1 0.862985 0.479765 0.34565
71 2 0.859912 0.449068 0.353642
72 2 0.86199 0.499816 0.372072
73 1 0.0334657 0.407089 0.35097
74 2 0.0289336 0.382963 0.368314
75 2 0.0402888 0.393606 0.330671
76 1 0.782207 0.596114 0.725108
77 2 0.790234 0.607827 0.709045
78 2 0.775157 0.58782 0.702971
79 1 0.292041 0.0465044 0.933205
80 2 0.283288 0.0625377 0.931548
81 2 0.298398 0.0596887 0.91111
82 1 0.596156 0.556127 0.136184
83 2 0.593294 0.560877 0.1046
84 2 0.589534 0.570346 0.156718
85 1 0.270115 0.444427 0.722436
86 2 0.268158 0.477053 0.720411
87 2 0.279829 0.439955 0.728962
88 1 0.541309 0.821814 0.936533
89 2 0.538339 0.791966 0.947589
90 2 0.538519 0.82553 0.90474
91 1 0.274349 0.731006 0.10788
92 2 0.281352 0.707209 0.107695
93 2 0.272301 0.740113 0.0765504
94 1 0.536993 0.854195 0.763467
95 2 0.543019 0.877965 0.775416
96 2 0.540669 0.842743 0.73466
97 1 0.592416 0.433909 0.240331
98 2 0.599204 0.44194 0.217208
99 2 0.596119 0.440261 0.270635
100 1 0.159007 0.45688 0.513211
101 2 0.154731 0.469269 0.54068
102 2 0.164823 0.480151 0.499292
103 1 0.286216 0.436279 0.614676
104 2 0.291885 0.445097 0.640679
105 2 0.287062 0.403469 0.609511
106 1 0.258516 0.474849 0.607385
107 2 0.267703 0.463937 0.614751
108 2 0.256641 0.469446 0.575092
109 1 0.225779 0.474007 0.549344
110 2 0.226521 0.492115 0.57722
111 2 0.222211 0.443764 0.556759
112 1 0.295807 0.670329 0.139324
113 2 0.291629 0.653215 0.114338
114 2 0.291088 0.66316 0.167824
115 1 0.55093 0.926549 0.803042
116 2 0.559201 0.912145 0.815024
117 2 0.549595 0.956072 0.817864
118 1 0.297312 0.617765 0.26702
119 2 0.304671 0.638837 0.275108
120 2 0.29013 0.634299 0.250752
121 1 0.0304199 0.488936 0.309059
122 2 0.0309251 0.461374 0.327729
123 2 0.0362287 0.485338 0.282165
124 1 0.116181 0.320485 0.416539
125 2 0.116029 0.289567 0.404093
126 2 0.12166 0.340131 0.39675
127 1 0.792126 0.612972 0.815603
128 2 0.792433 0.644545 0.826243
129 2 0.78746 0.611672 0.786149
130 1 0.579699 0.465903 0.0820603
131 2 0.587192 0.445311 0.0741021
132 2 0.573814 0.470366 0.0554835
133 1 0.205579 0.475666 0.834081
134 2 0.207296 0.448352 0.815851
135 2 0.20399 0.466936 0.865812
136 1 0.262155 0.377943 0.580793
137 2 0.256216 0.386726 0.606131
138 2 0.259737 0.395663 0.553735
139 1 0.371028 0.700269 0.902439
140 2 0.36659 0.684631 0.92789
141 2 0.375055 0.72881 0.913226
142 1 0.264385 0.727124 0.191321
143 2 0.269381 0.736282 0.163935
144 2 0.25867 0.752423 0.201721
145 1 0.286126 0.343343 0.596211
146 2 0.289453 0.319957 0.575205
147 2 0.276203 0.346192 0.593206
148 1 0.37532 0.25716 0.453276
149 2 0.381451 0.283154 0.449051
150 2 0.380628 0.230541 0.462736
151 1 0.851469 0.498981 0.262411
152 2 0.854225 0.484645 0.291068
153 2 0.856628 0.527208 0.258097
154 1 0.339879 0.69398 0.41303
155 2 0.340158 0.715038 0.438853
156 2 0.339604 0.662621 0.424294
157 1 0.769584 0.965578 0.245613
158 2 0.778874 0.95938 0.234944
159 2 0.769975 0.983349 0.273784
160 1 0.777991 0.0492338 0.927883
161 2 0.774599 0.050688 0.959206
162 2 0.770322 0.0443388 0.907058
163 1 0.574264 0.482258 0.328423
164 2 0.571716 0.450791 0.335406
165 2 0.575744 0.498998 0.356822
166 1 0.380888 0.1742 0.49
167 2 0.377478 0.144322 0.480554
168 2 0.390211 0.171091 0.501646
169 1 0.0516249 0.377588 0.278643
170 2 0.0494058 0.392358 0.249691
171 2 0.061542 0.377463 0.282925
172 1 0.135009 0.372101 0.376669
173 2 0.135108 0.394162 0.401655
174 2 0.138837 0.386155 0.349268
175 1 0.576022 0.503538 0.416699
176 2 0.580311 0.478153 0.432895
177 2 0.574139 0.528274 0.438144
178 1 0.364951 0.736191 0.47675
179 2 0.366459 0.767756 0.486212
180 2 0.36737 0.732816 0.444583
181 1 0.30107 0.35453 0.677134
182 2 0.30946 0.336872 0.681282
183 2 0.295945 0.342365 0.651223
184 1 0.908038 0.606109 0.0718787
185 2 0.902677 0.628839 0.0552923
186 2 0.902018 0.588792 0.092094
187 1 0.837711 0.356787 0.308668
188 2 0.835615 0.380344 0.286142
189 2 0.831686 0.330602 0.303953
190 1 0.345307 0.325385 0.526348
191 2 0.346646 0.347426 0.501743
192 2 0.349391 0.296205 0.51773
193 1 0.833743 0.42702 0.251895
194 2 0.830841 0.422 0.220393
195 2 0.838898 0.455516 0.253835
196 1 0.206077 0.41217 0.768009
197 2 0.19868 0.430006 0.754407
198 2 0.214171 0.413834 0.748508
199 1 0.221319 0.434945 0.693831
200 2 0.220524 0.464769 0.679181
201 2 0.230978 0.427626 0.698388
202 1 0.223454 0.5583 0.801162
203 2 0.230144 0.555083 0.825726
204 2 0.215498 0.539175 0.807655
205 1 0.568451 0.390109 0.349294
206 2 0.559922 0.383895 0.365551
207 2 0.566706 0.390454 0.316474
208 1 0.763654 0.0969036 0.987817
209 2 0.764972 0.124485 0.00601253
210 2 0.769701 0.0977686 0.961283
211 1 0.572789 0.904566 0.844339
212 2 0.568973 0.90553 0.875135
213 2 0.581214 0.886611 0.844476
214 1 0.257965 0.581683 0.24316
215 2 0.259751 0.590263 0.274815
216 2 0.258179 0.548478 0.240327
217 1 0.200674 0.377398 0.861051
218 2 0.203107 0.379426 0.828782
219 2 0.199752 0.345365 0.869741
220 1 0.808669 0.535347 0.830435
221 2 0.803044 0.562582 0.826213
222 2 0.803755 0.513424 0.849468
223 1 0.165072 0.550083 0.518606
224 2 0.17344 0.567541 0.523922
225 2 0.16452 0.541612 0.486419
226 1 0.2785 0.65088 0.208547
227 2 0.272205 0.625 0.207521
228 2 0.273308 0.679301 0.206582
229 1 0.806254 0.639341 0.705112
230 2 0.811983 0.633066 0.678521
231 2 0.810348 0.625387 0.732133
232 1 0.530329 0.837471 0.850793
233 2 0.535415 0.838742 0.82212
234 2 0.520587 0.841891 0.844705
235 1 0.284982 0.537635 0.290018
236 2 0.291009 0.563954 0.286156
237 2 0.280444 0.530867 0.261097
238 1 0.132297 0.433844 0.447217
239 2 0.123929 0.422045 0.461135
240 2 0.139946 0.429848 0.468317
241 1 0.0212044 0.564011 0.366693
242 2 0.0273268 0.561612 0.392939
243 2 0.0212505 0.535255 0.349835
244 1 0.314243 0.0797141 0.987655
245 2 0.30613 0.0627538 0.978056
246 2 0.311897 0.0994906 0.0133229
247 1 0.352172 0.648561 0.860866
248 2 0.350751 0.63415 0.831184
249 2 0.360196 0.668402 0.859441
250 1 0.821336 0.414109 0.363019
251 2 0.824634 0.445577 0.362783
252 2 0.828358 0.394066 0.350313
253 1 0.231615 0.494691 0.631099
254 2 0.241035 0.483902 0.62814
255 2 0.231533 0.523747 0.647433
256 1 0.555711 0.901127 0.9149
257 2 0.548197 0.904439 0.893157
258 2 0.55353 0.876912 0.936622
259 1 0.399181 0.0713865 0.431029
260 2 0.39749 0.0818919 0.3999
261 2 0.40424 0.0426461 0.430172
262 1 0.0161398 0.155715 0.669683
263 2 0.0156224 0.163714 0.701997
264 2 0.00691197 0.154395 0.656907
265 1 0.772285 0.174983 0.0389822
266 2 0.781046 0.18937 0.0461434
267 2 0.765364 0.185242 0.0607439
268 1 0.568377 0.600731 0.200197
269 2 0.568553 0.569521 0.211888
270 2 0.561031 0.617726 0.21512
271 1 0.823234 0.586269 0.647436
272 2 0.825704 0.572198 0.618361
273 2 0.827071 0.56835 0.672466
274 1 0.857325 0.369839 0.452086
275 2 0.84779 0.378602 0.457005
276 2 0.861453 0.361157 0.481179
277 1 0.85881 0.387335 0.355233
278 2 0.851672 0.36752 0.342896
279 2 0.861322 0.376954 0.385782
280 1 0.341659 0.692052 0.512599
281 2 0.343369 0.678782 0.542641
282 2 0.34901 0.713347 0.505029
283 1 0.297488 0.266349 0.559347
284 2 0.307166 0.259305 0.554796
285 2 0.291914 0.245873 0.540727
286 1 0.0419222 0.414966 0.195142
287 2 0.0435852 0.4096 0.162714
288 2 0.0326065 0.426321 0.199376
289 1 0.27818 0.620813 0.0844622
290 2 0.279759 0.592711 0.0673245
291 2 0.269224 0.619398 0.0992234
292 1 0.137035 0.505051 0.400931
293 2 0.131294 0.528907 0.414189
294 2 0.134858 0.475796 0.415165
295 1 0.235336 0.563085 0.700513
296 2 0.232441 0.556564 0.731745
297 2 0.243289 0.583281 0.701063
298 1 0.262256 0.60409 0.334705
299 2 0.266048 0.580358 0.354407
300 2 0.269165 0.627616 0.329473
ITEM: TIMESTEP
4200
ITEM: NUMBER OF ATOMS
300
ITEM: BOX BOUNDS pp ff pp
0.0000000000000000e+00 1.0000000000000000e+02
0.0000000000000000e+00 3.0000000000000000e+01
0.0000000000000000e+00 3.0000000000000000e+01
ITEM: ATOMS id type xs ys zs
1 1 0.357003 0.629636 0.959523
2 2 0.355506 0.610169 0.932928
3 2 0.348441 0.632863 0.976439
4 1 0.56448 0.54095 0.236202
5 2 0.562243 0.509674 0.227411
6 2 0.56616 0.542227 0.269037
7 1 0.0146342 0.631449 0.339611
8 2 0.022828 0.630169 0.358676
9 2 0.0080385 0.608721 0.350156
10 1 0.590878 0.430782 0.430543
11 2 0.59887 0.422732 0.412194
12 2 0.583992 0.40675 0.427946
13 1 0.824359 0.398045 0.480989
14 2 0.82104 0.392667 0.450009
15 2 0.816857 0.393779 0.502615
16 1 0.247962 0.383861 0.682029
17 2 0.254039 0.41028 0.683716
18 2 0.253423 0.356029 0.679775
19 1 0.40509 0.120477 0.470267
20 2 0.401666 0.10401 0.443628
21 2 0.413602 0.10643 0.480696
22 1 0.145603 0.46203 0.318616
23 2 0.145072 0.48004 0.346609
24 2 0.148405 0.481659 0.293347
25 1 0.357238 0.733837 0.39422
26 2 0.358429 0.732159 0.361166
27 2 0.349428 0.715078 0.403251
28 1 0.568637 0.408788 0.268526
29 2 0.578202 0.417714 0.264673
30 2 0.564724 0.401075 0.238836
31 1 0.572777 0.451291 0.178136
32 2 0.578618 0.463268 0.202398
33 2 0.578362 0.444317 0.151378
34 1 0.159019 0.505141 0.455007
35 2 0.1627 0.474621 0.460404
36 2 0.150593 0.502838 0.437208
37 1 0.299354 0.439461 0.708848
38 2 0.294582 0.410264 0.711222
39 2 0.308981 0.434074 0.701608
40 1 0.350089 0.24693 0.525366
41 2 0.356727 0.250151 0.500646
42 2 0.350769 0.21633 0.538389
43 1 0.110899 0.392989 0.467652
44 2 0.116956 0.366757 0.463747
45 2 0.101662 0.384876 0.457785
46 1 0.58041 0.349721 0.38703
47 2 0.57202 0.361989 0.373672
48 2 0.580739 0.316759 0.382191
49 1 0.613585 0.49141 0.1622
50 2 0.607204 0.515447 0.153202
51 2 0.622892 0.500358 0.153928
52 1 0.833857 0.530131 0.733094
53 2 0.827619 0.542611 0.755965
54 2 0.830733 0.499805 0.723982
55 1 0.641716 0.953717 0.325596
56 2 0.651497 0.959635 0.321974
57 2 0.640288 0.921384 0.332159
58 1 0.255837 0.449664 0.525798
59 2 0.255437 0.460119 0.494175
60 2 0.247506 0.432731 0.533082
61 1 0.311996 0.107927 0.909783
62 2 0.311889 0.0867165 0.935495
63 2 0.321438 0.116382 0.902791
64 1 0.322082 0.274833 0.502445
65 2 0.326667 0.297523 0.4834
66 2 0.328926 0.257006 0.518961
67 1 0.265876 0.607145 0.137
68 2 0.265832 0.639624 0.129503
69 2 0.260971 0.602279 0.165637
70 1 0.868675 0.472073 0.337268
71 2 0.865617 0.443316 0.350692
72 2 0.877696 0.479918 0.349323
73 1 0.0279002 0.409572 0.326351
74 2 0.0229431 0.392824 0.349964
75 2 0.0297398 0.389321 0.300594
76 1 0.778516 0.630077 0.726724
77 2 0.787288 0.621049 0.713509
78 2 0.77466 0.655276 0.709092
79 1 0.287353 0.055126 0.928774
80 2 0.281767 0.0750659 0.947927
81 2 0.294328 0.0732295 0.913194
82 1 0.588618 0.543154 0.149601
83 2 0.587939 0.522094 0.123863
84 2 0.580235 0.561208 0.151674
85 1 0.262219 0.467013 0.698868
86 2 0.261367 0.484344 0.670536
87 2 0.270331 0.47722 0.715473
88 1 0.542058 0.790736 0.925886
89 2 0.536061 0.796582 0.951911
90 2 0.537752 0.802172 0.89806
91 1 0.273497 0.712898 0.0926374
92 2 0.281382 0.699805 0.108419
93 2 0.276653 0.734848 0.0698638
94 1 0.534044 0.873968 0.788532
95 2 0.540393 0.899683 0.787161
96 2 0.534428 0.856984 0.759879
97 1 0.593467 0.453846 0.238951
98 2 0.600486 0.458994 0.215771
99 2 0.594217 0.477173 0.262631
100 1 0.164524 0.457566 0.537109
101 2 0.169517 0.438602 0.558892
102 2 0.165894 0.489721 0.544613
103 1 0.292752 0.468659 0.625301
104 2 0.291584 0.46362 0.658021
105 2 0.299243 0.446414 0.613131
106 1 0.264901 0.492242 0.612163
107 2 0.274781 0.493561 0.607185
108 2 0.260262 0.487536 0.583011
109 1 0.229688 0.425382 0.575259
110 2 0.230865 0.455322 0.589377
111 2 0.221228 0.411486 0.586333
112 1 0.29494 0.669934 0.138501
113 2 0.292587 0.644092 0.118962
114 2 0.297104 0.658923 0.169125
115 1 0.548338 0.949 0.783213
116 2 0.554564 0.944585 0.808922
117 2 0.545109 0.980546 0.782914
118 1 0.303882 0.616389 0.263923
119 2 0.311644 0.635905 0.271714
120 2 0.297114 0.6341 0.246935
121 1 0.0256168 0.498196 0.295642
122 2 0.0271496 0.467645 0.307958
123 2 0.0157898 0.503767 0.29298
124 1 0.122509 0.315524 0.430302
125 2 0.122805 0.285101 0.416715
126 2 0.126279 0.337699 0.408822
127 1 0.782609 0.59024 0.808957
128 2 0.773875 0.594645 0.824581
129 2 0.783377 0.612045 0.783876
130 1 0.59468 0.450283 0.108817
131 2 0.600974 0.448797 0.134678
132 2 0.598431 0.432787 0.0833485
133 1 0.208014 0.490275 0.811986
134 2 0.209794 0.462484 0.794563
135 2 0.208025 0.483189 0.844558
136 1 0.258416 0.363086 0.572557
137 2 0.25044 0.368881 0.591812
138 2 0.260711 0.390725 0.555568
139 1 0.368178 0.71553 0.927832
140 2 0.365538 0.684039 0.934312
141 2 0.374968 0.725559 0.950155
142 1 0.260108 0.705324 0.172106
143 2 0.265935 0.718629 0.148509
144 2 0.250553 0.712922 0.165868
145 1 0.286915 0.343133 0.605016
146 2 0.291541 0.32044 0.586085
147 2 0.277885 0.349645 0.592255
148 1 0.372895 0.246448 0.461821
149 2 0.377937 0.261793 0.437464
150 2 0.378384 0.221293 0.473803
151 1 0.845045 0.479644 0.280598
152 2 0.8535 0.466374 0.29246
153 2 0.844213 0.511129 0.291186
154 1 0.341193 0.67074 0.427684
155 2 0.345531 0.671047 0.457715
156 2 0.331383 0.665266 0.431153
157 1 0.775595 0.965675 0.250115
158 2 0.766419 0.96429 0.236937
159 2 0.782165 0.952381 0.228788
160 1 0.77281 0.039705 0.91413
161 2 0.780461 0.0221086 0.901835
162 2 0.764189 0.0256022 0.904833
163 1 0.568292 0.501869 0.333916
164 2 0.566991 0.46893 0.33663
165 2 0.571873 0.513905 0.362617
166 1 0.383562 0.169285 0.509526
167 2 0.379512 0.139329 0.515139
168 2 0.392236 0.165588 0.493356
169 1 0.0353421 0.348313 0.261285
170 2 0.0391988 0.376018 0.247933
171 2 0.041126 0.322255 0.253515
172 1 0.132819 0.388887 0.376883
173 2 0.132596 0.404127 0.406519
174 2 0.136851 0.409306 0.354223
175 1 0.583062 0.515466 0.423678
176 2 0.585628 0.48414 0.431208
177 2 0.590864 0.53106 0.409837
178 1 0.369263 0.75887 0.469793
179 2 0.378777 0.769118 0.470306
180 2 0.367491 0.742427 0.441406
181 1 0.295538 0.357975 0.689684
182 2 0.287998 0.342095 0.704759
183 2 0.294147 0.357301 0.656681
184 1 0.902251 0.625319 0.0591464
185 2 0.89522 0.647513 0.0674609
186 2 0.902229 0.620934 0.0261028
187 1 0.842321 0.369073 0.291624
188 2 0.84001 0.387699 0.265075
189 2 0.835525 0.344878 0.295172
190 1 0.34704 0.345783 0.514247
191 2 0.35496 0.365922 0.517187
192 2 0.348212 0.319363 0.534193
193 1 0.835278 0.421211 0.216977
194 2 0.842194 0.418837 0.193017
195 2 0.837546 0.446616 0.23719
196 1 0.201453 0.421425 0.756634
197 2 0.19366 0.433877 0.739865
198 2 0.208839 0.414326 0.735311
199 1 0.221864 0.414788 0.698751
200 2 0.224705 0.443385 0.684482
201 2 0.229885 0.395574 0.703948
202 1 0.204568 0.566766 0.749173
203 2 0.19688 0.547877 0.739291
204 2 0.209504 0.551241 0.773655
205 1 0.558709 0.386729 0.35052
206 2 0.549076 0.395591 0.351833
207 2 0.56234 0.393297 0.320165
208 1 0.772607 0.0776029 0.0146169
209 2 0.766925 0.0558957 0.0313839
210 2 0.772117 0.0709001 0.982005
211 1 0.566684 0.919921 0.85361
212 2 0.564248 0.909842 0.884328
213 2 0.574559 0.902471 0.842766
214 1 0.25603 0.607853 0.248154
215 2 0.259981 0.582611 0.265487
216 2 0.246312 0.610668 0.255502
217 1 0.206902 0.361683 0.855866
218 2 0.205285 0.381447 0.82957
219 2 0.207126 0.329884 0.845898
220 1 0.813108 0.554358 0.798826
221 2 0.803365 0.561642 0.797028
222 2 0.814876 0.536597 0.826412
223 1 0.169049 0.546369 0.53062
224 2 0.168214 0.578932 0.524065
225 2 0.165381 0.528806 0.505063
226 1 0.27991 0.654855 0.232915
227 2 0.271693 0.638713 0.242933
228 2 0.277427 0.677649 0.210045
229 1 0.805527 0.614301 0.713451
230 2 0.812509 0.611612 0.689739
231 2 0.809544 0.606852 0.743055
232 1 0.531766 0.861993 0.878355
233 2 0.530698 0.866084 0.845465
234 2 0.525862 0.883567 0.894429
235 1 0.287989 0.546423 0.301875
236 2 0.293379 0.573521 0.294531
237 2 0.291377 0.520487 0.284243
238 1 0.133617 0.433924 0.460154
239 2 0.124616 0.421916 0.468324
240 2 0.140083 0.427681 0.484803
241 1 0.0224818 0.540101 0.380619
242 2 0.0294288 0.535077 0.404064
243 2 0.0251707 0.524413 0.352607
244 1 0.312378 0.0596127 0.986395
245 2 0.305053 0.038071 0.97926
246 2 0.31379 0.0605437 0.0193808
247 1 0.357466 0.673634 0.848914
248 2 0.352306 0.694342 0.829256
249 2 0.36291 0.691355 0.870543
250 1 0.824088 0.401181 0.37631
251 2 0.825548 0.42415 0.352649
252 2 0.831176 0.404083 0.399642
253 1 0.232321 0.492411 0.652731
254 2 0.240858 0.478577 0.663214
255 2 0.231866 0.524014 0.663223
256 1 0.560205 0.861844 0.922034
257 2 0.564334 0.835891 0.937789
258 2 0.551283 0.852966 0.909882
259 1 0.394853 0.0756402 0.397846
260 2 0.387918 0.0517737 0.400512
261 2 0.392886 0.0945301 0.371176
262 1 0.0170813 0.153343 0.672963
263 2 0.0197936 0.16988 0.700457
264 2 0.00715291 0.149365 0.672769
265 1 0.770877 0.201582 0.0786095
266 2 0.770675 0.175087 0.0583938
267 2 0.774041 0.228253 0.0616222
268 1 0.561403 0.578429 0.150565
269 2 0.562462 0.574553 0.183483
270 2 0.551971 0.587122 0.143709
271 1 0.828432 0.602657 0.651873
272 2 0.837403 0.616058 0.657975
273 2 0.82796 0.572299 0.665549
274 1 0.853569 0.376899 0.436749
275 2 0.844488 0.38222 0.449653
276 2 0.859752 0.366371 0.460738
277 1 0.863749 0.381525 0.352756
278 2 0.855798 0.374266 0.33389
279 2 0.861451 0.377012 0.384882
280 1 0.346032 0.716432 0.504551
281 2 0.344174 0.7221 0.53681
282 2 0.353052 0.737619 0.493841
283 1 0.294444 0.281002 0.528828
284 2 0.303594 0.286024 0.516351
285 2 0.287647 0.284869 0.504685
286 1 0.0514315 0.421838 0.213937
287 2 0.0567033 0.441259 0.234556
288 2 0.0460494 0.440907 0.193306
289 1 0.2866 0.613012 0.0764811
290 2 0.287737 0.595364 0.048458
291 2 0.279071 0.600259 0.0943336
292 1 0.136326 0.502608 0.404599
293 2 0.127433 0.515035 0.39576
294 2 0.134976 0.47561 0.423625
295 1 0.232172 0.57353 0.704179
296 2 0.224118 0.583851 0.721024
297 2 0.240367 0.578656 0.722586
298 1 0.260733 0.582419 0.344924
299 2 0.270089 0.571717 0.340036
300 2 0.260908 0.610611 0.362699
ITEM: TIMESTEP
4300
ITEM: NUMBER OF ATOMS
300
ITEM: BOX BOUNDS pp ff pp
0.0000000000000000e+00 1.0000000000000000e+02
0.0000000000000000e+00 3.0000000000000000e+01
0.0000000000000000e+00 3.0000000000000000e+01
ITEM: ATOMS id type xs ys zs
1 1 0.361079 0.629535 0.958093
2 2 0.360423 0.616578 0.927459
3 2 0.364198 0.606071 0.979365
4 1 0.559929 0.518878 0.22654
5 2 0.55856 0.491152 0.208608
6 2 0.56898 0.51812 0.240687
7 1 0.0145151 0.60722 0.323028
8 2 0.0243893 0.603413 0.319385
9 2 0.0116191 0.593483 0.351825
10 1 0.595274 0.415961 0.411536
11 2 0.602582 0.396135 0.422707
12 2 0.586791 0.398491 0.409038
13 1 0.826691 0.405406 0.47037
14 2 0.826185 0.404394 0.437094
15 2 0.822017 0.432708 0.481458
16 1 0.246657 0.374164 0.693474
17 2 0.248754 0.40572 0.701624
18 2 0.255175 0.357127 0.689642
19 1 0.403417 0.0799197 0.444349
20 2 0.399852 0.0801345 0.413207
21 2 0.406485 0.0491622 0.452127
22 1 0.148737 0.463898 0.337217
23 2 0.150368 0.488317 0.359246
24 2 0.144301 0.476471 0.310118
25 1 0.361941 0.746055 0.384019
26 2 0.359196 0.738103 0.352968
27 2 0.354696 0.737365 0.405288
28 1 0.571447 0.423354 0.267431
29 2 0.578496 0.446732 0.270969
30 2 0.571752 0.411186 0.236415
31 1 0.5774 0.453075 0.183324
32 2 0.582596 0.474936 0.201579
33 2 0.583617 0.430148 0.17083
34 1 0.160188 0.52708 0.452015
35 2 0.162564 0.494765 0.449975
36 2 0.151459 0.53238 0.436636
37 1 0.294366 0.438061 0.706821
38 2 0.289778 0.410674 0.695544
39 2 0.304068 0.436813 0.698835
40 1 0.352886 0.254315 0.515732
41 2 0.361385 0.237857 0.509585
42 2 0.34547 0.232475 0.520524
43 1 0.122209 0.378896 0.491234
44 2 0.121063 0.349765 0.475489
45 2 0.117541 0.377728 0.52069
46 1 0.573961 0.370269 0.397659
47 2 0.567476 0.382373 0.375359
48 2 0.571104 0.339694 0.406906
49 1 0.608802 0.509265 0.177491
50 2 0.600917 0.505288 0.157378
51 2 0.612746 0.539526 0.17274
52 1 0.835714 0.532247 0.729859
53 2 0.828755 0.532122 0.753796
54 2 0.835147 0.503909 0.712409
55 1 0.643061 0.953793 0.352108
56 2 0.635838 0.93495 0.365386
57 2 0.639014 0.975905 0.331129
58 1 0.250151 0.451059 0.53908
59 2 0.247335 0.448672 0.507185
60 2 0.242572 0.441914 0.558812
61 1 0.306896 0.123471 0.928273
62 2 0.311176 0.0999095 0.947047
63 2 0.312596 0.150859 0.928482
64 1 0.326037 0.301098 0.466408
65 2 0.334266 0.319438 0.471151
66 2 0.328165 0.275507 0.446262
67 1 0.271721 0.579082 0.150081
68 2 0.273984 0.611509 0.148447
69 2 0.266125 0.573362 0.177108
70 1 0.868079 0.464354 0.301851
71 2 0.864071 0.445735 0.326056
72 2 0.877848 0.457678 0.299391
73 1 0.0197081 0.397574 0.294987
74 2 0.0147623 0.383385 0.320246
75 2 0.0223465 0.374185 0.272926
76 1 0.783195 0.64932 0.75356
77 2 0.786832 0.64265 0.723234
78 2 0.788736 0.673055 0.767934
79 1 0.283857 0.0641206 0.927527
80 2 0.275391 0.075297 0.941302
81 2 0.290981 0.0873306 0.930457
82 1 0.585395 0.529424 0.138105
83 2 0.581367 0.499202 0.133912
84 2 0.578116 0.552215 0.139833
85 1 0.25383 0.468275 0.697966
86 2 0.25801 0.475661 0.668599
87 2 0.257336 0.488978 0.72133
88 1 0.535881 0.777275 0.894432
89 2 0.534458 0.776068 0.86146
90 2 0.536157 0.80908 0.904368
91 1 0.27167 0.716141 0.0927459
92 2 0.279965 0.703633 0.106533
93 2 0.274008 0.731553 0.0642355
94 1 0.530383 0.905228 0.831021
95 2 0.53755 0.918249 0.811768
96 2 0.522621 0.896193 0.812042
97 1 0.590914 0.492616 0.250325
98 2 0.599479 0.502379 0.236161
99 2 0.588529 0.51364 0.27494
100 1 0.160573 0.435745 0.550284
101 2 0.169589 0.421451 0.552181
102 2 0.161421 0.468402 0.556336
103 1 0.288515 0.491449 0.63674
104 2 0.290508 0.474315 0.664551
105 2 0.295081 0.516389 0.63356
106 1 0.263536 0.497431 0.618185
107 2 0.273296 0.492881 0.623852
108 2 0.261374 0.48837 0.586927
109 1 0.229771 0.440706 0.593673
110 2 0.228177 0.465299 0.615538
111 2 0.224593 0.41372 0.602896
112 1 0.298824 0.672605 0.128802
113 2 0.297057 0.646156 0.109389
114 2 0.296887 0.664746 0.160545
115 1 0.549881 0.947165 0.784076
116 2 0.55568 0.948605 0.811193
117 2 0.550627 0.97576 0.767127
118 1 0.295816 0.618324 0.274278
119 2 0.297744 0.64112 0.297734
120 2 0.290464 0.632274 0.24982
121 1 0.0213081 0.485893 0.301098
122 2 0.0215284 0.453432 0.293557
123 2 0.0119542 0.497293 0.2981
124 1 0.12245 0.320905 0.423719
125 2 0.121409 0.300619 0.397498
126 2 0.128263 0.346697 0.415323
127 1 0.787191 0.566374 0.776896
128 2 0.779978 0.544316 0.77008
129 2 0.783591 0.597288 0.773523
130 1 0.599566 0.411001 0.154575
131 2 0.6011 0.437451 0.174207
132 2 0.608371 0.398358 0.145099
133 1 0.204539 0.500252 0.789302
134 2 0.20316 0.479455 0.76366
135 2 0.214153 0.499694 0.798456
136 1 0.262299 0.36365 0.59366
137 2 0.254648 0.355408 0.613478
138 2 0.260757 0.394056 0.581004
139 1 0.372084 0.718932 0.930232
140 2 0.366879 0.693155 0.942294
141 2 0.37287 0.742499 0.95366
142 1 0.256906 0.71778 0.166983
143 2 0.26192 0.711407 0.138855
144 2 0.247144 0.720372 0.160227
145 1 0.28468 0.307279 0.602468
146 2 0.290416 0.309496 0.575256
147 2 0.276995 0.32844 0.599801
148 1 0.374811 0.208295 0.486218
149 2 0.381555 0.206958 0.461641
150 2 0.376757 0.184387 0.508521
151 1 0.84061 0.490364 0.295078
152 2 0.848792 0.492798 0.276072
153 2 0.843116 0.494497 0.327081
154 1 0.342432 0.690478 0.450239
155 2 0.346629 0.707374 0.475336
156 2 0.341601 0.658345 0.45866
157 1 0.781322 0.962805 0.247981
158 2 0.78652 0.970048 0.275521
159 2 0.771549 0.966321 0.254104
160 1 0.767394 0.0356139 0.927573
161 2 0.768056 0.0290621 0.894965
162 2 0.757996 0.0306245 0.937813
163 1 0.574233 0.524064 0.310561
164 2 0.564399 0.518468 0.308268
165 2 0.577565 0.513121 0.340023
166 1 0.396989 0.149507 0.517816
167 2 0.403612 0.164058 0.538114
168 2 0.401807 0.129927 0.49614
169 1 0.0293785 0.346723 0.228113
170 2 0.0380739 0.360263 0.21875
171 2 0.0293708 0.314243 0.220619
172 1 0.140101 0.394917 0.40371
173 2 0.142876 0.40626 0.433659
174 2 0.14544 0.41023 0.380048
175 1 0.583652 0.494732 0.38788
176 2 0.58889 0.467067 0.394277
177 2 0.589088 0.521464 0.396141
178 1 0.367751 0.779461 0.468046
179 2 0.374827 0.802132 0.46166
180 2 0.363268 0.770657 0.439581
181 1 0.282484 0.351582 0.682845
182 2 0.282568 0.337084 0.712859
183 2 0.284507 0.328819 0.659447
184 1 0.89394 0.642804 0.040948
185 2 0.887924 0.618724 0.0523134
186 2 0.901043 0.649128 0.0635404
187 1 0.843789 0.346531 0.294427
188 2 0.844433 0.368029 0.269043
189 2 0.839132 0.318842 0.284255
190 1 0.347867 0.354194 0.493503
191 2 0.3501 0.38413 0.506136
192 2 0.351863 0.330414 0.512693
193 1 0.845745 0.418832 0.236876
194 2 0.855295 0.428662 0.237937
195 2 0.840349 0.437105 0.258176
196 1 0.196791 0.427391 0.74086
197 2 0.188043 0.418523 0.727361
198 2 0.204275 0.415212 0.722409
199 1 0.221074 0.397739 0.695607
200 2 0.224672 0.428314 0.689912
201 2 0.228615 0.375851 0.696058
202 1 0.190243 0.567181 0.732233
203 2 0.180778 0.557909 0.726779
204 2 0.194795 0.544344 0.751189
205 1 0.554234 0.385552 0.324895
206 2 0.544538 0.384443 0.316812
207 2 0.559025 0.406075 0.304041
208 1 0.780854 0.0682947 0.017261
209 2 0.787775 0.0490474 0.0316981
210 2 0.778465 0.0556456 0.987466
211 1 0.561459 0.946347 0.865461
212 2 0.559941 0.913717 0.870018
213 2 0.560984 0.962044 0.894824
214 1 0.264487 0.592585 0.23956
215 2 0.254663 0.590269 0.24535
216 2 0.269498 0.587166 0.267893
217 1 0.213209 0.386162 0.817742
218 2 0.206561 0.398405 0.796059
219 2 0.210194 0.39278 0.848828
220 1 0.812528 0.547525 0.779672
221 2 0.803296 0.557968 0.772241
222 2 0.814047 0.550343 0.812497
223 1 0.169433 0.521027 0.53782
224 2 0.170672 0.55173 0.550123
225 2 0.167566 0.522902 0.505127
226 1 0.281492 0.663151 0.202826
227 2 0.275036 0.638634 0.209685
228 2 0.276453 0.690386 0.193487
229 1 0.800318 0.616708 0.676165
230 2 0.810289 0.619219 0.676645
231 2 0.797714 0.584652 0.673305
232 1 0.53523 0.866465 0.915413
233 2 0.533245 0.877323 0.8846
234 2 0.532643 0.889866 0.93753
235 1 0.286491 0.540691 0.307079
236 2 0.289661 0.565785 0.287851
237 2 0.292611 0.514577 0.303472
238 1 0.142838 0.435681 0.481637
239 2 0.134568 0.419568 0.491212
240 2 0.149205 0.437589 0.50727
241 1 0.0273745 0.534118 0.381319
242 2 0.0321936 0.51798 0.405663
243 2 0.027695 0.515976 0.353375
244 1 0.311769 0.0442794 0.972818
245 2 0.303867 0.0266571 0.962483
246 2 0.317649 0.0249651 0.991627
247 1 0.362812 0.701203 0.844108
248 2 0.363748 0.724194 0.820176
249 2 0.368547 0.709559 0.870104
250 1 0.828488 0.403594 0.381554
251 2 0.825826 0.424082 0.356803
252 2 0.838298 0.406599 0.387282
253 1 0.226859 0.486329 0.683725
254 2 0.236428 0.484056 0.693131
255 2 0.22373 0.517784 0.687318
256 1 0.562548 0.848743 0.881451
257 2 0.56263 0.816583 0.872691
258 2 0.556233 0.853141 0.90692
259 1 0.390766 0.0759498 0.361587
260 2 0.394103 0.0759687 0.330165
261 2 0.385889 0.047476 0.367602
262 1 0.0180294 0.150924 0.676616
263 2 0.023168 0.173424 0.694265
264 2 0.00915028 0.14569 0.691029
265 1 0.771804 0.209925 0.112008
266 2 0.765749 0.233865 0.100582
267 2 0.768325 0.180149 0.102519
268 1 0.561656 0.577467 0.159807
269 2 0.5584 0.558388 0.184892
270 2 0.555229 0.602512 0.154822
271 1 0.831021 0.615667 0.668675
272 2 0.838737 0.63508 0.677205
273 2 0.830882 0.588637 0.688175
274 1 0.855141 0.354711 0.448735
275 2 0.852968 0.323053 0.441225
276 2 0.847696 0.367825 0.466712
277 1 0.856579 0.401525 0.355815
278 2 0.851144 0.379166 0.338995
279 2 0.862801 0.385683 0.376554
280 1 0.354826 0.723422 0.52501
281 2 0.355259 0.721237 0.55824
282 2 0.362803 0.740113 0.513806
283 1 0.298604 0.325484 0.528297
284 2 0.30688 0.318177 0.51107
285 2 0.295471 0.356059 0.520101
286 1 0.0530722 0.412051 0.24055
287 2 0.0453758 0.432036 0.247869
288 2 0.0592448 0.427654 0.219471
289 1 0.293852 0.587377 0.0915913
290 2 0.298284 0.5575 0.0921185
291 2 0.284691 0.584905 0.104723
292 1 0.135421 0.505496 0.422315
293 2 0.12558 0.50831 0.417105
294 2 0.137071 0.483914 0.447115
295 1 0.218121 0.590397 0.69114
296 2 0.20947 0.596189 0.706821
297 2 0.217816 0.603876 0.66067
298 1 0.25926 0.575031 0.331138
299 2 0.266711 0.555913 0.319793
300 2 0.260961 0.582836 0.363044
ITEM: TIMESTEP
4400
ITEM: NUMBER OF ATOMS
300
ITEM: BOX BOUNDS pp ff pp
0.0000000000000000e+00 1.0000000000000000e+02
0.0000000000000000e+00 3.0000000000000000e+01
0.0000000000000000e+00 3.0000000000000000e+01
ITEM: ATOMS id type xs ys zs
1 1 0.361953 0.646219 0.958303
2 2 0.359449 0.614029 0.960586
3 2 0.354825 0.662711 0.941735
4 1 0.56458 0.519084 0.213289
5 2 0.565317 0.487523 0.202852
6 2 0.566993 0.520762 0.245594
7 1 0.0175751 0.581805 0.313099
8 2 0.0142472 0.611301 0.323965
9 2 0.0252305 0.571849 0.332095
10 1 0.590278 0.405716 0.389478
11 2 0.597237 0.383214 0.397643
12 2 0.581223 0.393863 0.397203
13 1 0.831326 0.413704 0.459923
14 2 0.829527 0.418483 0.427483
15 2 0.829335 0.441734 0.476697
16 1 0.246426 0.382992 0.71189
17 2 0.247761 0.413735 0.723979
18 2 0.252102 0.378875 0.684758
19 1 0.396777 0.0578895 0.43556
20 2 0.393294 0.071512 0.40744
21 2 0.399974 0.0269265 0.42933
22 1 0.142661 0.466292 0.362439
23 2 0.138447 0.474976 0.391393
24 2 0.138206 0.482707 0.337518
25 1 0.358073 0.748616 0.385375
26 2 0.353335 0.753785 0.356479
27 2 0.353874 0.722853 0.401233
28 1 0.569384 0.408711 0.293549
29 2 0.574725 0.431005 0.310784
30 2 0.570505 0.414348 0.260909
31 1 0.575985 0.42166 0.205299
32 2 0.583484 0.441527 0.214872
33 2 0.579677 0.39563 0.188502
34 1 0.161495 0.540271 0.456086
35 2 0.164413 0.516601 0.434727
36 2 0.151668 0.545472 0.452741
37 1 0.29038 0.421409 0.683223
38 2 0.287257 0.39204 0.671383
39 2 0.294501 0.417033 0.713277
40 1 0.36393 0.271808 0.509623
41 2 0.367423 0.240588 0.508677
42 2 0.354372 0.271494 0.519412
43 1 0.124751 0.359898 0.515118
44 2 0.12487 0.356949 0.481918
45 2 0.122928 0.330136 0.528844
46 1 0.566663 0.368499 0.423192
47 2 0.561524 0.363898 0.39497
48 2 0.563185 0.347912 0.446706
49 1 0.60497 0.526245 0.156836
50 2 0.598898 0.540272 0.134371
51 2 0.613737 0.519059 0.142503
52 1 0.832304 0.534103 0.709757
53 2 0.827045 0.521679 0.73524
54 2 0.8398 0.513339 0.70229
55 1 0.64298 0.954287 0.375422
56 2 0.646357 0.984251 0.384728
57 2 0.634052 0.94877 0.389388
58 1 0.256928 0.464261 0.542635
59 2 0.25888 0.478992 0.513451
60 2 0.247423 0.470089 0.551202
61 1 0.299745 0.135826 0.937321
62 2 0.308613 0.121439 0.931815
63 2 0.300858 0.168947 0.937959
64 1 0.317654 0.341111 0.459733
65 2 0.32727 0.342497 0.468776
66 2 0.317006 0.331332 0.42794
67 1 0.277244 0.558823 0.132213
68 2 0.276678 0.590556 0.122187
69 2 0.274041 0.556467 0.163703
70 1 0.866939 0.462815 0.309373
71 2 0.864619 0.43508 0.326169
72 2 0.876184 0.472532 0.317559
73 1 0.0115304 0.379055 0.25723
74 2 0.00511674 0.357023 0.244243
75 2 0.0200556 0.378555 0.239814
76 1 0.791436 0.637726 0.745027
77 2 0.790731 0.65807 0.718727
78 2 0.79703 0.652145 0.768597
79 1 0.282691 0.0669823 0.937724
80 2 0.274457 0.0725214 0.919637
81 2 0.288761 0.0933859 0.935582
82 1 0.585372 0.567348 0.0980275
83 2 0.580865 0.569503 0.0683495
84 2 0.579329 0.579592 0.121593
85 1 0.249736 0.484691 0.710075
86 2 0.255883 0.47672 0.685021
87 2 0.251346 0.516301 0.71919
88 1 0.536235 0.786723 0.851674
89 2 0.530733 0.760263 0.860313
90 2 0.532985 0.813604 0.868139
91 1 0.276496 0.719831 0.0826324
92 2 0.285408 0.707406 0.0912387
93 2 0.276355 0.725806 0.0498422
94 1 0.522167 0.936088 0.875192
95 2 0.529491 0.945582 0.854578
96 2 0.515218 0.960011 0.876743
97 1 0.595912 0.488285 0.225176
98 2 0.601423 0.503884 0.202146
99 2 0.588478 0.508279 0.235034
100 1 0.16295 0.422014 0.550165
101 2 0.166906 0.408509 0.57764
102 2 0.161883 0.454867 0.554541
103 1 0.29043 0.500252 0.643665
104 2 0.293119 0.470835 0.656526
105 2 0.295635 0.524585 0.658428
106 1 0.265064 0.466995 0.637623
107 2 0.274106 0.481197 0.6387
108 2 0.260319 0.476587 0.609893
109 1 0.233392 0.466241 0.583428
110 2 0.227662 0.482044 0.605713
111 2 0.233604 0.433676 0.590508
112 1 0.296353 0.667655 0.138022
113 2 0.295918 0.634905 0.131985
114 2 0.293468 0.673609 0.169377
115 1 0.545699 0.939965 0.819284
116 2 0.554195 0.953064 0.831009
117 2 0.547595 0.910189 0.805699
118 1 0.297354 0.64328 0.285398
119 2 0.304342 0.664184 0.296864
120 2 0.293531 0.655316 0.257045
121 1 0.0205274 0.463953 0.314951
122 2 0.016043 0.436349 0.30374
123 2 0.0196572 0.488168 0.292229
124 1 0.126155 0.339487 0.426506
125 2 0.118145 0.343998 0.407067
126 2 0.134417 0.347771 0.409653
127 1 0.791966 0.550421 0.752139
128 2 0.78655 0.53627 0.727955
129 2 0.79154 0.583586 0.749106
130 1 0.610168 0.415385 0.20789
131 2 0.60348 0.440144 0.206847
132 2 0.618825 0.426917 0.219954
133 1 0.192725 0.486088 0.756516
134 2 0.188504 0.461268 0.739279
135 2 0.192369 0.479068 0.78908
136 1 0.26362 0.390291 0.586487
137 2 0.265682 0.412505 0.610371
138 2 0.261675 0.406287 0.55797
139 1 0.377061 0.71896 0.938888
140 2 0.371265 0.692205 0.943584
141 2 0.383495 0.721767 0.964249
142 1 0.263348 0.717573 0.171947
143 2 0.267603 0.728877 0.143979
144 2 0.253695 0.726266 0.172386
145 1 0.282689 0.315864 0.592923
146 2 0.291177 0.325241 0.578001
147 2 0.274906 0.329807 0.577314
148 1 0.376595 0.170675 0.517129
149 2 0.37891 0.190828 0.542534
150 2 0.384972 0.157662 0.504394
151 1 0.840431 0.497805 0.298941
152 2 0.849164 0.482518 0.304422
153 2 0.841987 0.525559 0.281224
154 1 0.344803 0.695229 0.442526
155 2 0.353967 0.692914 0.455666
156 2 0.338387 0.705615 0.465889
157 1 0.78592 0.962118 0.252464
158 2 0.787469 0.951278 0.221369
159 2 0.794646 0.970998 0.26611
160 1 0.763129 0.0374563 0.951772
161 2 0.759905 0.00638158 0.95725
162 2 0.764364 0.0421789 0.919032
163 1 0.568262 0.532025 0.300102
164 2 0.56006 0.539787 0.317522
165 2 0.573985 0.511357 0.317991
166 1 0.400724 0.136333 0.490509
167 2 0.40969 0.144211 0.478023
168 2 0.399159 0.103595 0.487028
169 1 0.034335 0.37566 0.211803
170 2 0.0417946 0.391325 0.227533
171 2 0.0381069 0.352139 0.191808
172 1 0.148094 0.371847 0.386184
173 2 0.156486 0.374945 0.404043
174 2 0.145592 0.401468 0.373374
175 1 0.584735 0.488629 0.352229
176 2 0.588363 0.458576 0.360078
177 2 0.590792 0.512235 0.364321
178 1 0.365479 0.804734 0.451947
179 2 0.3715 0.82297 0.432563
180 2 0.363196 0.776257 0.436383
181 1 0.278924 0.330943 0.676462
182 2 0.271522 0.309239 0.682054
183 2 0.282658 0.325995 0.645937
184 1 0.882601 0.64288 0.0464415
185 2 0.880981 0.613167 0.0605514
186 2 0.875657 0.648475 0.0231175
187 1 0.848628 0.338879 0.299519
188 2 0.849352 0.365089 0.279065
189 2 0.844262 0.313554 0.283459
190 1 0.347021 0.338066 0.48518
191 2 0.351416 0.367869 0.488064
192 2 0.353988 0.314162 0.485833
193 1 0.846749 0.410672 0.245784
194 2 0.849577 0.432412 0.269227
195 2 0.845354 0.426741 0.216952
196 1 0.198191 0.39578 0.734732
197 2 0.191526 0.376238 0.719381
198 2 0.206884 0.394702 0.718293
199 1 0.220619 0.392019 0.691335
200 2 0.221168 0.425231 0.689165
201 2 0.229741 0.379556 0.696912
202 1 0.184228 0.580858 0.734609
203 2 0.174636 0.586515 0.742142
204 2 0.18629 0.548524 0.738895
205 1 0.552878 0.372031 0.352241
206 2 0.545348 0.357977 0.3354
207 2 0.559228 0.386277 0.330792
208 1 0.786807 0.0616555 0.0138705
209 2 0.789208 0.0938033 0.0175543
210 2 0.780601 0.0582552 0.987955
211 1 0.568445 0.948784 0.863964
212 2 0.566966 0.915817 0.863944
213 2 0.577779 0.955358 0.873953
214 1 0.270175 0.558166 0.230448
215 2 0.26164 0.541873 0.236474
216 2 0.276566 0.552983 0.255556
217 1 0.205611 0.436589 0.829303
218 2 0.205064 0.403871 0.823194
219 2 0.211131 0.451287 0.805712
220 1 0.815059 0.502274 0.778172
221 2 0.806083 0.514311 0.769747
222 2 0.813903 0.474143 0.795633
223 1 0.160841 0.513273 0.546351
224 2 0.162835 0.540412 0.564528
225 2 0.162784 0.519536 0.514258
226 1 0.278224 0.640531 0.20879
227 2 0.274241 0.609978 0.20998
228 2 0.271463 0.661978 0.196825
229 1 0.800031 0.669454 0.659012
230 2 0.808183 0.650522 0.662805
231 2 0.797211 0.669114 0.627034
232 1 0.534656 0.864373 0.90883
233 2 0.529366 0.890969 0.899193
234 2 0.532087 0.856048 0.93995
235 1 0.282748 0.568274 0.305827
236 2 0.286558 0.597154 0.295069
237 2 0.289976 0.550154 0.32005
238 1 0.142219 0.434954 0.490641
239 2 0.137581 0.407436 0.501362
240 2 0.150234 0.440823 0.509687
241 1 0.0316519 0.530168 0.365287
242 2 0.028369 0.518269 0.394437
243 2 0.0315495 0.505826 0.342517
244 1 0.310147 0.041542 0.951867
245 2 0.30028 0.0392399 0.946948
246 2 0.313949 0.0110879 0.956661
247 1 0.369792 0.714588 0.852702
248 2 0.376603 0.733524 0.837303
249 2 0.371012 0.716986 0.885699
250 1 0.825836 0.426767 0.375255
251 2 0.826231 0.452412 0.354002
252 2 0.831688 0.402122 0.364152
253 1 0.224222 0.47562 0.685607
254 2 0.232799 0.481893 0.701557
255 2 0.216714 0.491284 0.701081
256 1 0.559621 0.863458 0.860108
257 2 0.558874 0.835524 0.842092
258 2 0.552554 0.863608 0.883689
259 1 0.388533 0.0820308 0.34216
260 2 0.383672 0.10962 0.332809
261 2 0.392467 0.0672152 0.315333
262 1 0.018898 0.148665 0.680374
263 2 0.0252946 0.173548 0.686481
264 2 0.0129735 0.144205 0.706855
265 1 0.772999 0.209527 0.136694
266 2 0.772892 0.176435 0.132699
267 2 0.763675 0.221339 0.134314
268 1 0.565273 0.588047 0.156697
269 2 0.567321 0.563216 0.177861
270 2 0.557843 0.606649 0.169011
271 1 0.825774 0.628358 0.668413
272 2 0.834096 0.64648 0.672041
273 2 0.826171 0.601854 0.688585
274 1 0.857951 0.357061 0.454099
275 2 0.860676 0.330515 0.472097
276 2 0.849414 0.369491 0.466218
277 1 0.860962 0.3864 0.364679
278 2 0.858758 0.359412 0.346547
279 2 0.859191 0.380099 0.396875
280 1 0.36166 0.72675 0.515743
281 2 0.361267 0.717658 0.547786
282 2 0.360561 0.7598 0.513413
283 1 0.300772 0.347233 0.536014
284 2 0.306376 0.343011 0.508731
285 2 0.296906 0.377976 0.536009
286 1 0.0523872 0.389633 0.283318
287 2 0.0487175 0.410177 0.306544
288 2 0.0601489 0.372793 0.295894
289 1 0.304745 0.58009 0.120344
290 2 0.314007 0.568537 0.125289
291 2 0.298126 0.555947 0.126785
292 1 0.132035 0.507145 0.443132
293 2 0.122343 0.509807 0.450899
294 2 0.136153 0.48256 0.460971
295 1 0.207931 0.580256 0.673471
296 2 0.200502 0.5806 0.69578
297 2 0.209398 0.611104 0.661825
298 1 0.254663 0.556752 0.336602
299 2 0.264101 0.566122 0.330818
300 2 0.249085 0.583651 0.343068
ITEM: TIMESTEP
4500
ITEM: NUMBER OF ATOMS
300
ITEM: BOX BOUNDS pp ff pp
0.0000000000000000e+00 1.0000000000000000e+02
0.0000000000000000e+00 3.0000000000000000e+01
0.0000000000000000e+00 3.0000000000000000e+01
ITEM: ATOMS id type xs ys zs
1 1 0.360438 0.673152 0.948963
2 2 0.352157 0.687485 0.936971
3 2 0.365172 0.657125 0.924363
4 1 0.565026 0.498253 0.196738
5 2 0.5674 0.466311 0.202047
6 2 0.562933 0.512954 0.22583
7 1 0.0175164 0.568596 0.285651
8 2 0.0152331 0.571877 0.253365
9 2 0.0228575 0.59496 0.295605
10 1 0.586775 0.396957 0.377327
11 2 0.57858 0.378871 0.371185
12 2 0.587875 0.400719 0.410244
13 1 0.838342 0.443198 0.472941
14 2 0.838918 0.445996 0.439781
15 2 0.835639 0.472487 0.486059
16 1 0.247245 0.397961 0.680729
17 2 0.245794 0.428617 0.692893
18 2 0.256221 0.396396 0.666123
19 1 0.392304 0.0501725 0.424306
20 2 0.389415 0.0595362 0.393799
21 2 0.398198 0.0233434 0.422008
22 1 0.137909 0.46306 0.372133
23 2 0.13901 0.471409 0.404195
24 2 0.131198 0.483251 0.357884
25 1 0.351708 0.757534 0.382283
26 2 0.344466 0.759202 0.359358
27 2 0.349299 0.734736 0.405236
28 1 0.563665 0.409011 0.308353
29 2 0.569798 0.429811 0.324493
30 2 0.567812 0.400118 0.279355
31 1 0.579496 0.406538 0.230918
32 2 0.58858 0.415692 0.241427
33 2 0.580237 0.378604 0.212897
34 1 0.163058 0.538505 0.474679
35 2 0.167658 0.509174 0.478638
36 2 0.154859 0.534331 0.456057
37 1 0.294717 0.407001 0.700147
38 2 0.303166 0.404078 0.71774
39 2 0.290368 0.377117 0.697337
40 1 0.361203 0.250113 0.495106
41 2 0.352593 0.235791 0.504183
42 2 0.368788 0.229343 0.501469
43 1 0.123323 0.344163 0.506668
44 2 0.123652 0.336445 0.474259
45 2 0.114302 0.356455 0.51415
46 1 0.562076 0.375277 0.452618
47 2 0.557054 0.379749 0.424143
48 2 0.556356 0.358485 0.474196
49 1 0.603899 0.539692 0.137699
50 2 0.598101 0.562542 0.123018
51 2 0.612698 0.538159 0.121933
52 1 0.828103 0.534602 0.688178
53 2 0.82573 0.527007 0.719656
54 2 0.834817 0.512701 0.676753
55 1 0.642314 0.957095 0.399929
56 2 0.645752 0.938211 0.424893
57 2 0.649329 0.979117 0.39102
58 1 0.255387 0.512696 0.548226
59 2 0.251513 0.540524 0.535186
60 2 0.248438 0.488727 0.548409
61 1 0.295375 0.144484 0.941439
62 2 0.299467 0.115427 0.932455
63 2 0.30251 0.164878 0.952817
64 1 0.322447 0.376423 0.468054
65 2 0.329396 0.354307 0.477299
66 2 0.325104 0.390333 0.439085
67 1 0.286586 0.529782 0.147244
68 2 0.287873 0.561603 0.138293
69 2 0.277472 0.525942 0.160413
70 1 0.866915 0.470497 0.335071
71 2 0.867414 0.437395 0.338624
72 2 0.868607 0.485125 0.364488
73 1 0.0123091 0.388272 0.229376
74 2 0.00894375 0.362673 0.21121
75 2 0.0221226 0.392068 0.224213
76 1 0.797482 0.626318 0.716642
77 2 0.797094 0.647319 0.690789
78 2 0.797939 0.643723 0.745029
79 1 0.280637 0.0511817 0.951191
80 2 0.273193 0.0551025 0.929279
81 2 0.281227 0.078146 0.970689
82 1 0.586036 0.59952 0.0832846
83 2 0.581556 0.598073 0.0535191
84 2 0.579462 0.591557 0.107108
85 1 0.252401 0.507368 0.701183
86 2 0.25577 0.484624 0.679555
87 2 0.256928 0.536535 0.695468
88 1 0.538879 0.813047 0.80964
89 2 0.537818 0.780128 0.813512
90 2 0.530552 0.828471 0.819778
91 1 0.28039 0.72632 0.098579
92 2 0.286652 0.705678 0.114365
93 2 0.28197 0.724459 0.0657173
94 1 0.520276 0.949809 0.90697
95 2 0.528195 0.957239 0.888024
96 2 0.515397 0.977822 0.914844
97 1 0.601183 0.505694 0.220433
98 2 0.599731 0.517201 0.189525
99 2 0.603446 0.531073 0.240684
100 1 0.163743 0.431442 0.550306
101 2 0.170454 0.412357 0.566005
102 2 0.165113 0.463309 0.55895
103 1 0.289226 0.477925 0.639791
104 2 0.290645 0.449418 0.656408
105 2 0.293518 0.503002 0.656451
106 1 0.263092 0.468537 0.629253
107 2 0.272827 0.475892 0.631217
108 2 0.258564 0.490206 0.60891
109 1 0.233515 0.451144 0.577207
110 2 0.229097 0.460528 0.6056
111 2 0.231144 0.419455 0.570537
112 1 0.296771 0.664573 0.130322
113 2 0.305696 0.650002 0.126618
114 2 0.292207 0.652092 0.157228
115 1 0.542673 0.958067 0.861472
116 2 0.549226 0.980521 0.850074
117 2 0.546699 0.927608 0.859677
118 1 0.291558 0.649074 0.279196
119 2 0.298568 0.671227 0.270574
120 2 0.286251 0.640531 0.252265
121 1 0.0211958 0.427196 0.30387
122 2 0.0147356 0.407953 0.287223
123 2 0.0222355 0.456299 0.287993
124 1 0.127497 0.326481 0.418054
125 2 0.120453 0.324519 0.394475
126 2 0.135988 0.337876 0.404628
127 1 0.79646 0.539077 0.730544
128 2 0.793716 0.522844 0.702903
129 2 0.796341 0.571908 0.724793
130 1 0.607923 0.426717 0.254217
131 2 0.604442 0.452417 0.236439
132 2 0.617674 0.422688 0.248016
133 1 0.179905 0.468071 0.745074
134 2 0.182213 0.439108 0.730477
135 2 0.185651 0.472369 0.772015
136 1 0.269226 0.39182 0.57815
137 2 0.265612 0.415082 0.598763
138 2 0.262855 0.387318 0.552853
139 1 0.385855 0.711518 0.951187
140 2 0.37746 0.696724 0.961636
141 2 0.393451 0.702612 0.97095
142 1 0.263056 0.70579 0.172286
143 2 0.267133 0.711786 0.142446
144 2 0.253391 0.714327 0.171739
145 1 0.285007 0.317963 0.579292
146 2 0.292897 0.329777 0.56256
147 2 0.278259 0.342247 0.583216
148 1 0.3797 0.191061 0.532041
149 2 0.388372 0.207314 0.535408
150 2 0.381381 0.161112 0.518521
151 1 0.843562 0.48891 0.301186
152 2 0.853118 0.485028 0.310202
153 2 0.84216 0.519955 0.289983
154 1 0.345236 0.700922 0.44376
155 2 0.344418 0.70891 0.476007
156 2 0.353615 0.683367 0.438987
157 1 0.792324 0.961127 0.253635
158 2 0.784107 0.969845 0.270509
159 2 0.789709 0.944119 0.226324
160 1 0.76198 0.0392869 0.974317
161 2 0.757671 0.0603568 0.95285
162 2 0.756427 0.0116821 0.976861
163 1 0.568315 0.527913 0.284697
164 2 0.562735 0.521836 0.311683
165 2 0.577863 0.520468 0.291231
166 1 0.388645 0.13059 0.47067
167 2 0.389294 0.150048 0.443692
168 2 0.390507 0.0989809 0.462098
169 1 0.0393858 0.403756 0.221113
170 2 0.042541 0.392525 0.250683
171 2 0.046884 0.402212 0.199112
172 1 0.146241 0.376817 0.368298
173 2 0.155855 0.372463 0.376381
174 2 0.143945 0.4092 0.370266
175 1 0.589103 0.472664 0.306859
176 2 0.592754 0.452419 0.330379
177 2 0.591666 0.461137 0.276771
178 1 0.368664 0.80668 0.448384
179 2 0.370525 0.836961 0.435905
180 2 0.36239 0.790402 0.428166
181 1 0.27983 0.336571 0.676061
182 2 0.271243 0.328865 0.691307
183 2 0.279918 0.323159 0.645546
184 1 0.87226 0.649297 0.042357
185 2 0.871164 0.681632 0.0351327
186 2 0.881867 0.642976 0.0491218
187 1 0.849727 0.328061 0.304944
188 2 0.8476 0.358257 0.292737
189 2 0.84343 0.305634 0.291999
190 1 0.346764 0.324546 0.497904
191 2 0.352181 0.346566 0.51523
192 2 0.352589 0.299074 0.488667
193 1 0.843501 0.406285 0.266036
194 2 0.840888 0.43371 0.282862
195 2 0.844693 0.413816 0.233808
196 1 0.197118 0.387889 0.744671
197 2 0.200081 0.357191 0.753108
198 2 0.204338 0.402879 0.727142
199 1 0.21982 0.404943 0.699704
200 2 0.218428 0.434974 0.686003
201 2 0.228044 0.390987 0.686861
202 1 0.179816 0.566535 0.737617
203 2 0.17281 0.580659 0.756755
204 2 0.178842 0.53338 0.73877
205 1 0.55081 0.358046 0.36602
206 2 0.546648 0.330965 0.352408
207 2 0.554722 0.377119 0.341992
208 1 0.789603 0.0604223 0.00879532
209 2 0.789006 0.0774482 0.0373833
210 2 0.780739 0.0465495 1.00204
211 1 0.574328 0.93903 0.841478
212 2 0.570062 0.90995 0.84943
213 2 0.582001 0.933605 0.820802
214 1 0.269646 0.526261 0.220314
215 2 0.264292 0.501953 0.234518
216 2 0.279148 0.524188 0.230489
217 1 0.195748 0.472178 0.821693
218 2 0.202043 0.487373 0.842667
219 2 0.200217 0.445427 0.808515
220 1 0.818132 0.481623 0.760334
221 2 0.809963 0.500848 0.759895
222 2 0.815798 0.451625 0.772612
223 1 0.167585 0.520462 0.564452
224 2 0.164116 0.530251 0.594144
225 2 0.16356 0.539386 0.540515
226 1 0.278294 0.629911 0.19504
227 2 0.272437 0.604819 0.205056
228 2 0.27261 0.654937 0.183823
229 1 0.803377 0.691208 0.65339
230 2 0.8113 0.670894 0.654336
231 2 0.801382 0.699321 0.62175
232 1 0.527291 0.858501 0.900811
233 2 0.525317 0.891095 0.903156
234 2 0.521469 0.841692 0.922072
235 1 0.277358 0.606079 0.343297
236 2 0.282923 0.625152 0.323217
237 2 0.282029 0.602292 0.372527
238 1 0.135543 0.425394 0.527109
239 2 0.132341 0.394526 0.520446
240 2 0.143099 0.423981 0.548897
241 1 0.0401414 0.479762 0.379509
242 2 0.0343099 0.492098 0.403614
243 2 0.0375105 0.493101 0.350246
244 1 0.306351 0.0552639 0.932849
245 2 0.296449 0.0514121 0.935428
246 2 0.310591 0.025825 0.926159
247 1 0.374264 0.716037 0.867884
248 2 0.373627 0.744044 0.849932
249 2 0.38087 0.720289 0.892545
250 1 0.831172 0.427171 0.363605
251 2 0.828604 0.453279 0.344731
252 2 0.836336 0.405336 0.345218
253 1 0.221269 0.486734 0.66418
254 2 0.229563 0.497364 0.679465
255 2 0.214522 0.51133 0.663524
256 1 0.554047 0.872263 0.862854
257 2 0.550538 0.854541 0.837159
258 2 0.547703 0.869913 0.888514
259 1 0.390273 0.0708146 0.324345
260 2 0.384913 0.0977428 0.316176
261 2 0.391351 0.0513174 0.297548
262 1 0.0197087 0.146593 0.684321
263 2 0.0264374 0.170621 0.678778
264 2 0.0179542 0.144189 0.717049
265 1 0.771499 0.197764 0.152388
266 2 0.764084 0.18293 0.135647
267 2 0.767861 0.21152 0.180224
268 1 0.569497 0.575874 0.150504
269 2 0.568584 0.546353 0.165683
270 2 0.561294 0.594107 0.156087
271 1 0.819894 0.626741 0.677581
272 2 0.826406 0.601469 0.67649
273 2 0.81151 0.616736 0.69275
274 1 0.855775 0.365767 0.45059
275 2 0.85378 0.335146 0.461959
276 2 0.849731 0.387762 0.465469
277 1 0.865785 0.388149 0.361715
278 2 0.864035 0.363211 0.340379
279 2 0.862505 0.379623 0.392028
280 1 0.366536 0.742342 0.509639
281 2 0.374512 0.734746 0.528255
282 2 0.367476 0.773397 0.497941
283 1 0.305914 0.358006 0.536348
284 2 0.310058 0.362482 0.506343
285 2 0.300036 0.383994 0.543547
286 1 0.0446038 0.386333 0.308685
287 2 0.0354439 0.398878 0.304051
288 2 0.0467364 0.386141 0.341251
289 1 0.315247 0.579018 0.14278
290 2 0.32212 0.570426 0.165416
291 2 0.307171 0.55968 0.146324
292 1 0.136498 0.498527 0.458998
293 2 0.131316 0.524346 0.471086
294 2 0.13578 0.47275 0.479997
295 1 0.202184 0.555043 0.666474
296 2 0.194388 0.563939 0.685358
297 2 0.202668 0.574886 0.639738
298 1 0.254938 0.559062 0.324501
299 2 0.264122 0.570789 0.33053
300 2 0.248159 0.581886 0.333418
ITEM: TIMESTEP
4600
ITEM: NUMBER OF ATOMS
300
ITEM: BOX BOUNDS pp ff pp
0.0000000000000000e+00 1.0000000000000000e+02
0.0000000000000000e+00 3.0000000000000000e+01
0.0000000000000000e+00 3.0000000000000000e+01
ITEM: ATOMS id type xs ys zs
1 1 0.359316 0.691026 0.952238
2 2 0.349633 0.684585 0.946966
3 2 0.362577 0.712745 0.929407
4 1 0.575163 0.476161 0.194271
5 2 0.565822 0.470871 0.204939
6 2 0.579924 0.496099 0.215759
7 1 0.0227358 0.517772 0.272278
8 2 0.0163498 0.516696 0.297907
9 2 0.0308321 0.499581 0.279479
10 1 0.586392 0.402665 0.383836
11 2 0.589513 0.401511 0.415484
12 2 0.579438 0.379227 0.378898
13 1 0.841051 0.463307 0.470949
14 2 0.837148 0.452905 0.442076
15 2 0.833811 0.476146 0.490024
16 1 0.255711 0.400035 0.681473
17 2 0.2626 0.376798 0.688093
18 2 0.259508 0.422448 0.660294
19 1 0.389905 0.0646946 0.42204
20 2 0.385892 0.0535387 0.39362
21 2 0.398081 0.0826266 0.415203
22 1 0.143064 0.462931 0.391607
23 2 0.138263 0.486577 0.408809
24 2 0.15288 0.465045 0.39761
25 1 0.347185 0.779774 0.38965
26 2 0.339561 0.7917 0.371675
27 2 0.344671 0.750157 0.402448
28 1 0.560807 0.404479 0.294965
29 2 0.565256 0.431201 0.308272
30 2 0.566059 0.394034 0.268593
31 1 0.575325 0.388765 0.220456
32 2 0.576628 0.418086 0.205208
33 2 0.584041 0.378403 0.233093
34 1 0.159489 0.548092 0.474969
35 2 0.16068 0.532596 0.445724
36 2 0.149736 0.552412 0.48093
37 1 0.297502 0.405464 0.71429
38 2 0.305611 0.389532 0.703031
39 2 0.289506 0.385689 0.711185
40 1 0.347124 0.216596 0.501636
41 2 0.342843 0.186484 0.500823
42 2 0.357044 0.213159 0.504088
43 1 0.127026 0.333588 0.498239
44 2 0.131328 0.325953 0.469133
45 2 0.117651 0.321992 0.498607
46 1 0.559526 0.380956 0.465651
47 2 0.553819 0.376309 0.438677
48 2 0.553787 0.390486 0.491231
49 1 0.609303 0.539588 0.127835
50 2 0.603811 0.56577 0.118319
51 2 0.608865 0.515911 0.104417
52 1 0.840124 0.519993 0.65189
53 2 0.833908 0.516511 0.677767
54 2 0.844181 0.490453 0.64443
55 1 0.643134 0.959876 0.428101
56 2 0.649733 0.966604 0.403974
57 2 0.636644 0.936921 0.417326
58 1 0.25345 0.498671 0.561755
59 2 0.251393 0.525844 0.579802
60 2 0.24522 0.479936 0.559021
61 1 0.289445 0.130702 0.957344
62 2 0.295636 0.113672 0.937462
63 2 0.287747 0.160841 0.944279
64 1 0.328951 0.404531 0.482998
65 2 0.336503 0.385013 0.492813
66 2 0.330054 0.412024 0.450727
67 1 0.30262 0.512079 0.173811
68 2 0.304452 0.484973 0.192226
69 2 0.295773 0.530974 0.189081
70 1 0.872194 0.484647 0.362511
71 2 0.872981 0.45163 0.358758
72 2 0.864533 0.491528 0.382801
73 1 0.0171589 0.389627 0.200849
74 2 0.0164353 0.376651 0.17024
75 2 0.0266321 0.38758 0.211328
76 1 0.785575 0.624512 0.699641
77 2 0.793331 0.640171 0.68559
78 2 0.778575 0.646827 0.707934
79 1 0.278074 0.0463435 0.962045
80 2 0.272996 0.0411964 0.990295
81 2 0.283325 0.0745984 0.964572
82 1 0.588129 0.59091 0.104484
83 2 0.583663 0.590418 0.0746626
84 2 0.581682 0.580624 0.127798
85 1 0.251894 0.517464 0.670123
86 2 0.256714 0.489778 0.660824
87 2 0.254661 0.525806 0.70105
88 1 0.531969 0.847186 0.7912
89 2 0.52306 0.853455 0.777421
90 2 0.530923 0.824302 0.815184
91 1 0.281154 0.723408 0.129801
92 2 0.288486 0.700748 0.130349
93 2 0.279939 0.734627 0.0986749
94 1 0.526027 0.931053 0.914747
95 2 0.534754 0.947214 0.912826
96 2 0.518576 0.953143 0.91724
97 1 0.606556 0.532171 0.218212
98 2 0.60687 0.525996 0.185472
99 2 0.606708 0.565105 0.223329
100 1 0.158026 0.437982 0.570179
101 2 0.163928 0.415419 0.584841
102 2 0.162847 0.46712 0.568198
103 1 0.297143 0.485198 0.643229
104 2 0.294107 0.471383 0.671828
105 2 0.30698 0.491009 0.644686
106 1 0.270374 0.468122 0.621901
107 2 0.278586 0.48465 0.631321
108 2 0.266781 0.481544 0.593838
109 1 0.233972 0.442591 0.579469
110 2 0.229523 0.454205 0.60697
111 2 0.227905 0.42089 0.564263
112 1 0.299421 0.662142 0.12532
113 2 0.307957 0.645171 0.121649
114 2 0.294066 0.648689 0.150048
115 1 0.549515 0.976642 0.909608
116 2 0.556844 0.996288 0.92094
117 2 0.5528 0.95935 0.883299
118 1 0.291857 0.653523 0.269943
119 2 0.299169 0.676185 0.271823
120 2 0.288283 0.652576 0.238826
121 1 0.00653418 0.424127 0.284781
122 2 0.00805473 0.420754 0.252008
123 2 0.997262 0.414181 0.292325
124 1 0.134754 0.302305 0.41064
125 2 0.142049 0.282719 0.398968
126 2 0.134652 0.330948 0.393595
127 1 0.793557 0.536373 0.717657
128 2 0.784921 0.52801 0.73224
129 2 0.792379 0.564905 0.700876
130 1 0.600885 0.443915 0.257764
131 2 0.604362 0.469191 0.239382
132 2 0.60756 0.436224 0.281363
133 1 0.170823 0.4604 0.746216
134 2 0.162464 0.444033 0.754398
135 2 0.17628 0.465762 0.773629
136 1 0.257734 0.38565 0.561676
137 2 0.267464 0.386506 0.56932
138 2 0.252994 0.410376 0.577491
139 1 0.385536 0.696608 0.972117
140 2 0.376421 0.684198 0.966284
141 2 0.385389 0.714404 0.000298795
142 1 0.260642 0.674292 0.164161
143 2 0.267093 0.693282 0.147187
144 2 0.251614 0.688627 0.163894
145 1 0.285197 0.352075 0.599906
146 2 0.291716 0.361988 0.576652
147 2 0.284416 0.31885 0.599235
148 1 0.375052 0.212913 0.486046
149 2 0.379757 0.226347 0.459879
150 2 0.373357 0.180584 0.480216
151 1 0.847659 0.465232 0.311059
152 2 0.855886 0.483148 0.317229
153 2 0.841742 0.465495 0.33793
154 1 0.342884 0.706587 0.438259
155 2 0.348535 0.72244 0.460731
156 2 0.347956 0.680654 0.425901
157 1 0.796879 0.958515 0.252986
158 2 0.806767 0.956035 0.257295
159 2 0.792833 0.974113 0.279176
160 1 0.761341 0.0437859 0.997669
161 2 0.752872 0.0261816 0.995586
162 2 0.760696 0.0705992 0.977983
163 1 0.570892 0.530484 0.263655
164 2 0.565615 0.551121 0.28304
165 2 0.57431 0.505059 0.281955
166 1 0.37433 0.115314 0.473535
167 2 0.369453 0.0946963 0.494071
168 2 0.380264 0.0976032 0.453379
169 1 0.0446011 0.392322 0.231994
170 2 0.0416159 0.406763 0.260341
171 2 0.0512965 0.368539 0.238879
172 1 0.131927 0.381456 0.360485
173 2 0.122293 0.388522 0.355008
174 2 0.137239 0.409696 0.360722
175 1 0.580634 0.467455 0.313016
176 2 0.58219 0.450825 0.341435
177 2 0.58872 0.464897 0.293569
178 1 0.370785 0.800642 0.424403
179 2 0.37183 0.831563 0.412448
180 2 0.364428 0.783599 0.405127
181 1 0.277659 0.341317 0.686105
182 2 0.283667 0.315613 0.693123
183 2 0.278498 0.349089 0.653812
184 1 0.861829 0.647599 0.0540524
185 2 0.863472 0.679445 0.0458694
186 2 0.868533 0.628187 0.0387251
187 1 0.850151 0.344903 0.307126
188 2 0.8464 0.361994 0.281383
189 2 0.848006 0.312548 0.303504
190 1 0.351818 0.318201 0.516839
191 2 0.358125 0.322037 0.542421
192 2 0.351195 0.28589 0.508914
193 1 0.838229 0.402501 0.25293
194 2 0.841807 0.427499 0.271477
195 2 0.835934 0.413878 0.222547
196 1 0.207699 0.39052 0.757516
197 2 0.206071 0.37844 0.726926
198 2 0.217539 0.393668 0.762563
199 1 0.232237 0.420569 0.712099
200 2 0.228002 0.444842 0.694135
201 2 0.241664 0.416062 0.701935
202 1 0.174295 0.531825 0.697695
203 2 0.167557 0.551258 0.712826
204 2 0.17478 0.502444 0.713355
205 1 0.553836 0.361729 0.372583
206 2 0.548821 0.332946 0.370782
207 2 0.554141 0.375891 0.342425
208 1 0.790598 0.0570793 0.00744601
209 2 0.794819 0.0292509 0.0192258
210 2 0.781699 0.0615438 0.0219806
211 1 0.570737 0.939546 0.820708
212 2 0.563064 0.919543 0.828247
213 2 0.576172 0.925727 0.796379
214 1 0.273068 0.552372 0.235302
215 2 0.265743 0.5487 0.257696
216 2 0.273685 0.584389 0.226259
217 1 0.192276 0.463483 0.796587
218 2 0.199254 0.480069 0.779413
219 2 0.195627 0.432902 0.803742
220 1 0.817767 0.499057 0.712346
221 2 0.808659 0.512668 0.710276
222 2 0.816941 0.467075 0.721327
223 1 0.167941 0.523498 0.560691
224 2 0.165374 0.54474 0.584913
225 2 0.166301 0.537685 0.531028
226 1 0.28141 0.627153 0.178422
227 2 0.281462 0.596668 0.164941
228 2 0.274049 0.645171 0.164841
229 1 0.808401 0.667643 0.668267
230 2 0.816308 0.647454 0.665277
231 2 0.811286 0.699223 0.663648
232 1 0.521337 0.849671 0.889329
233 2 0.522792 0.880966 0.899732
234 2 0.518996 0.830389 0.915376
235 1 0.270242 0.635329 0.330154
236 2 0.276593 0.642196 0.305341
237 2 0.271902 0.656174 0.35557
238 1 0.134675 0.427103 0.515604
239 2 0.130748 0.397097 0.50933
240 2 0.14325 0.423472 0.532367
241 1 0.0444064 0.434224 0.393622
242 2 0.0539895 0.441725 0.38775
243 2 0.043833 0.413147 0.419374
244 1 0.304184 0.0681737 0.918746
245 2 0.296659 0.0491752 0.929743
246 2 0.308575 0.0532966 0.892754
247 1 0.38221 0.72236 0.882164
248 2 0.385617 0.704662 0.856301
249 2 0.386978 0.712941 0.909909
250 1 0.839464 0.434698 0.387861
251 2 0.847971 0.420631 0.377408
252 2 0.83255 0.41108 0.392554
253 1 0.222706 0.483224 0.647927
254 2 0.230195 0.504488 0.653911
255 2 0.214037 0.497201 0.656911
256 1 0.54675 0.899037 0.853763
257 2 0.541955 0.893128 0.825115
258 2 0.54079 0.891263 0.879377
259 1 0.386805 0.077634 0.319425
260 2 0.39248 0.0735562 0.292285
261 2 0.377251 0.0813675 0.310313
262 1 0.0206003 0.144606 0.688874
263 2 0.0266994 0.164246 0.671209
264 2 0.0234908 0.144477 0.720784
265 1 0.770429 0.187086 0.166383
266 2 0.761791 0.176343 0.179289
267 2 0.773902 0.212459 0.184639
268 1 0.567398 0.551016 0.149953
269 2 0.570852 0.525172 0.167577
270 2 0.559838 0.540927 0.130605
271 1 0.827397 0.608534 0.654818
272 2 0.828292 0.576717 0.645336
273 2 0.833838 0.614822 0.679528
274 1 0.856319 0.387635 0.457246
275 2 0.851943 0.365248 0.477176
276 2 0.854014 0.418381 0.467577
277 1 0.863515 0.394776 0.370347
278 2 0.857624 0.376322 0.350727
279 2 0.86248 0.384875 0.401989
280 1 0.366375 0.750191 0.499787
281 2 0.37526 0.735002 0.501593
282 2 0.366405 0.771744 0.474359
283 1 0.307408 0.353648 0.531161
284 2 0.311135 0.376901 0.510765
285 2 0.311807 0.324379 0.524883
286 1 0.0351548 0.436102 0.303262
287 2 0.0254314 0.428693 0.305659
288 2 0.0390138 0.439694 0.333803
289 1 0.321435 0.584457 0.168461
290 2 0.330398 0.569688 0.169091
291 2 0.314293 0.561265 0.165921
292 1 0.13345 0.507538 0.467493
293 2 0.125004 0.519289 0.480922
294 2 0.135193 0.476796 0.478995
295 1 0.201426 0.558019 0.691738
296 2 0.191698 0.554627 0.698678
297 2 0.202724 0.583979 0.671281
298 1 0.256482 0.563964 0.30433
299 2 0.261664 0.588227 0.319296
300 2 0.254393 0.540015 0.326446
ITEM: TIMESTEP
4700
ITEM: NUMBER OF ATOMS
300
ITEM: BOX BOUNDS pp ff pp
0.0000000000000000e+00 1.0000000000000000e+02
0.0000000000000000e+00 3.0000000000000000e+01
0.0000000000000000e+00 3.0000000000000000e+01
ITEM: ATOMS id type xs ys zs
1 1 0.362066 0.700824 0.956506
2 2 0.356965 0.729398 0.954159
3 2 0.362778 0.686798 0.92636
4 1 0.579342 0.481799 0.19004
5 2 0.575452 0.506004 0.208937
6 2 0.587754 0.470535 0.20411
7 1 0.0144878 0.511653 0.230271
8 2 0.00933816 0.488826 0.247457
9 2 0.0174242 0.498625 0.201192
10 1 0.583435 0.421307 0.393943
11 2 0.589646 0.415452 0.419401
12 2 0.57674 0.396632 0.391869
13 1 0.844105 0.465372 0.473591
14 2 0.840334 0.459475 0.443286
15 2 0.839234 0.490904 0.487577
16 1 0.264649 0.41789 0.707549
17 2 0.269208 0.390542 0.696046
18 2 0.265306 0.442197 0.684844
19 1 0.389765 0.0927764 0.407109
20 2 0.388764 0.0759943 0.378502
21 2 0.387079 0.124547 0.40246
22 1 0.143726 0.423834 0.39484
23 2 0.142212 0.436679 0.425182
24 2 0.152766 0.432871 0.38382
25 1 0.342323 0.803436 0.392078
26 2 0.333249 0.808952 0.379201
27 2 0.341763 0.779132 0.414814
28 1 0.560108 0.389615 0.298336
29 2 0.564526 0.416586 0.311249
30 2 0.564031 0.383086 0.268378
31 1 0.57333 0.385735 0.213842
32 2 0.567888 0.408608 0.197752
33 2 0.583025 0.393605 0.211614
34 1 0.156248 0.549144 0.508188
35 2 0.154511 0.572813 0.485443
36 2 0.14832 0.528926 0.510161
37 1 0.29285 0.427761 0.708455
38 2 0.284733 0.436614 0.725795
39 2 0.29215 0.395642 0.699854
40 1 0.34323 0.236873 0.497008
41 2 0.339475 0.225287 0.525647
42 2 0.34858 0.212928 0.482184
43 1 0.131936 0.338757 0.471832
44 2 0.136523 0.333331 0.442715
45 2 0.12975 0.309558 0.486164
46 1 0.552942 0.384304 0.469574
47 2 0.556952 0.395377 0.441117
48 2 0.5522 0.409516 0.491238
49 1 0.608839 0.528286 0.14111
50 2 0.601383 0.549387 0.134173
51 2 0.608934 0.503707 0.118596
52 1 0.843005 0.505663 0.624161
53 2 0.834 0.512669 0.63685
54 2 0.842049 0.482934 0.599987
55 1 0.643812 0.96138 0.452861
56 2 0.639207 0.931819 0.454123
57 2 0.640716 0.978119 0.425947
58 1 0.252612 0.487106 0.54973
59 2 0.254584 0.486644 0.517055
60 2 0.242837 0.482024 0.554583
61 1 0.281932 0.132009 0.953021
62 2 0.287946 0.11754 0.930662
63 2 0.278663 0.161117 0.940978
64 1 0.331277 0.399245 0.522436
65 2 0.336719 0.37227 0.515065
66 2 0.331272 0.420075 0.496413
67 1 0.31341 0.520803 0.229473
68 2 0.314823 0.523211 0.262384
69 2 0.303656 0.523568 0.222672
70 1 0.871521 0.476511 0.360605
71 2 0.870437 0.443794 0.365862
72 2 0.869242 0.493148 0.388472
73 1 0.0233897 0.403797 0.183499
74 2 0.0239136 0.390021 0.153196
75 2 0.0317082 0.396655 0.200565
76 1 0.782855 0.619474 0.685878
77 2 0.792547 0.627165 0.688745
78 2 0.777707 0.646675 0.677121
79 1 0.28107 0.0472081 0.97051
80 2 0.284312 0.0430489 1.00177
81 2 0.277645 0.0782985 0.966745
82 1 0.589508 0.581382 0.105637
83 2 0.58896 0.597657 0.0766047
84 2 0.580425 0.570267 0.114067
85 1 0.247169 0.522827 0.673148
86 2 0.253296 0.507725 0.651564
87 2 0.251839 0.526633 0.702376
88 1 0.520327 0.881742 0.787337
89 2 0.513651 0.876356 0.763111
90 2 0.517908 0.863547 0.814077
91 1 0.282486 0.736364 0.145491
92 2 0.290097 0.716185 0.137723
93 2 0.284811 0.753984 0.172704
94 1 0.53103 0.917676 0.924461
95 2 0.540771 0.923496 0.919676
96 2 0.52715 0.941817 0.943462
97 1 0.609218 0.532861 0.230794
98 2 0.611002 0.528948 0.198229
99 2 0.61018 0.565038 0.238885
100 1 0.154269 0.423796 0.571365
101 2 0.156531 0.413993 0.60232
102 2 0.161051 0.445952 0.560913
103 1 0.299148 0.469223 0.623821
104 2 0.294663 0.459426 0.651957
105 2 0.308965 0.472563 0.629208
106 1 0.269554 0.485568 0.626103
107 2 0.279422 0.485758 0.620701
108 2 0.264746 0.483102 0.59698
109 1 0.228831 0.459841 0.582299
110 2 0.225995 0.475644 0.610084
111 2 0.2285 0.426907 0.587326
112 1 0.302252 0.673338 0.161152
113 2 0.309645 0.651187 0.157518
114 2 0.295053 0.660234 0.180218
115 1 0.556134 0.946515 0.918094
116 2 0.561199 0.939153 0.945875
117 2 0.562376 0.959604 0.895583
118 1 0.289269 0.646092 0.267728
119 2 0.299207 0.642703 0.266189
120 2 0.285051 0.629355 0.242563
121 1 0.00486151 0.431842 0.261118
122 2 0.0108528 0.421676 0.236441
123 2 0.995907 0.41735 0.257939
124 1 0.143586 0.324315 0.394063
125 2 0.153058 0.33407 0.389686
126 2 0.13743 0.346337 0.379743
127 1 0.791565 0.532875 0.688303
128 2 0.79338 0.52944 0.720903
129 2 0.787707 0.563077 0.682512
130 1 0.60003 0.458976 0.252837
131 2 0.604109 0.488898 0.247272
132 2 0.606877 0.435255 0.247597
133 1 0.166245 0.482246 0.747946
134 2 0.157199 0.474356 0.759755
135 2 0.173256 0.466396 0.765661
136 1 0.258661 0.368427 0.566049
137 2 0.26808 0.379234 0.568977
138 2 0.252643 0.394221 0.559464
139 1 0.3894 0.688865 0.981746
140 2 0.379437 0.689987 0.979131
141 2 0.392113 0.698046 0.0124885
142 1 0.262889 0.669542 0.148848
143 2 0.268017 0.697847 0.144622
144 2 0.253204 0.675021 0.14262
145 1 0.293528 0.383906 0.610527
146 2 0.294301 0.417139 0.610679
147 2 0.292739 0.37311 0.5791
148 1 0.356491 0.173646 0.435018
149 2 0.348153 0.164598 0.418995
150 2 0.360136 0.147536 0.451804
151 1 0.848389 0.480124 0.311577
152 2 0.857991 0.476889 0.320312
153 2 0.842584 0.475262 0.338279
154 1 0.336267 0.723789 0.43576
155 2 0.332934 0.693994 0.425763
156 2 0.346224 0.722861 0.43869
157 1 0.802575 0.958493 0.25835
158 2 0.79554 0.953593 0.23517
159 2 0.811566 0.951683 0.245448
160 1 0.761761 0.050882 0.0207925
161 2 0.759527 0.0833568 0.0218109
162 2 0.754306 0.0342409 0.00607347
163 1 0.571965 0.534992 0.259128
164 2 0.576146 0.531085 0.289155
165 2 0.562007 0.534512 0.262138
166 1 0.36904 0.0982859 0.481854
167 2 0.369268 0.0768998 0.507411
168 2 0.376218 0.0903778 0.460035
169 1 0.040843 0.37934 0.242768
170 2 0.0339851 0.390104 0.264509
171 2 0.0494732 0.373865 0.258692
172 1 0.121907 0.374559 0.368592
173 2 0.116575 0.371485 0.396623
174 2 0.129262 0.39664 0.373347
175 1 0.576797 0.458762 0.31722
176 2 0.580866 0.446191 0.344952
177 2 0.583919 0.463123 0.294231
178 1 0.370644 0.797797 0.405645
179 2 0.372563 0.796135 0.372973
180 2 0.362017 0.813931 0.410529
181 1 0.286526 0.341815 0.685878
182 2 0.286651 0.308485 0.685909
183 2 0.288615 0.352985 0.655254
184 1 0.85283 0.655492 0.0533274
185 2 0.853708 0.63436 0.0789394
186 2 0.851416 0.686393 0.0649023
187 1 0.848666 0.353592 0.328499
188 2 0.846929 0.37589 0.304408
189 2 0.842904 0.32678 0.323672
190 1 0.347721 0.337916 0.497896
191 2 0.353292 0.346714 0.524142
192 2 0.348095 0.304836 0.493993
193 1 0.841434 0.412698 0.257627
194 2 0.843328 0.439303 0.276691
195 2 0.841747 0.421547 0.225506
196 1 0.214511 0.40714 0.76509
197 2 0.214122 0.373843 0.76597
198 2 0.220673 0.416817 0.740687
199 1 0.235496 0.428036 0.704971
200 2 0.232785 0.457653 0.692631
201 2 0.245472 0.425726 0.705084
202 1 0.176156 0.52401 0.67806
203 2 0.172152 0.516106 0.648555
204 2 0.171798 0.505952 0.702019
205 1 0.56158 0.351922 0.379879
206 2 0.557576 0.322723 0.388845
207 2 0.555923 0.365968 0.35625
208 1 0.790985 0.0499283 0.00682637
209 2 0.79211 0.0186861 1.01782
210 2 0.781537 0.0597116 0.0116802
211 1 0.567896 0.960774 0.843222
212 2 0.560015 0.941818 0.835365
213 2 0.572883 0.968782 0.815461
214 1 0.287156 0.533137 0.239094
215 2 0.281229 0.52476 0.264599
216 2 0.285098 0.564312 0.229498
217 1 0.189031 0.437539 0.785528
218 2 0.192773 0.461758 0.76632
219 2 0.196073 0.414522 0.79103
220 1 0.818361 0.499383 0.659188
221 2 0.808726 0.506325 0.664789
222 2 0.82219 0.483703 0.68569
223 1 0.169848 0.499331 0.571627
224 2 0.179757 0.503711 0.5726
225 2 0.166041 0.516187 0.545819
226 1 0.282515 0.615768 0.186551
227 2 0.284385 0.587884 0.169383
228 2 0.274782 0.63178 0.172755
229 1 0.809014 0.638439 0.677529
230 2 0.816054 0.639269 0.65387
231 2 0.811953 0.656832 0.703545
232 1 0.515811 0.851586 0.882035
233 2 0.521191 0.875277 0.897145
234 2 0.508779 0.84038 0.902916
235 1 0.270935 0.626031 0.325723
236 2 0.27692 0.642462 0.304671
237 2 0.270104 0.643251 0.354129
238 1 0.13663 0.429306 0.501079
239 2 0.133071 0.399174 0.493177
240 2 0.142649 0.426749 0.527574
241 1 0.043264 0.385941 0.406098
242 2 0.0517379 0.393732 0.390206
243 2 0.0410362 0.409965 0.42798
244 1 0.297252 0.0764346 0.904721
245 2 0.292071 0.0576858 0.9262
246 2 0.300568 0.0573619 0.879717
247 1 0.388939 0.728644 0.89448
248 2 0.397237 0.734705 0.876892
249 2 0.390914 0.706081 0.918116
250 1 0.836761 0.44176 0.385724
251 2 0.845678 0.427393 0.390329
252 2 0.830327 0.419291 0.373625
253 1 0.222599 0.501548 0.665183
254 2 0.231691 0.515362 0.666489
255 2 0.215873 0.52273 0.677826
256 1 0.543463 0.925826 0.819417
257 2 0.536355 0.911155 0.801126
258 2 0.541096 0.923536 0.851722
259 1 0.385073 0.0714043 0.316837
260 2 0.387602 0.0911392 0.29133
261 2 0.378234 0.0492929 0.306713
262 1 0.0216115 0.142871 0.693663
263 2 0.0258093 0.154523 0.665743
264 2 0.0282496 0.144169 0.718559
265 1 0.77239 0.177446 0.186798
266 2 0.768033 0.147701 0.190711
267 2 0.768797 0.19873 0.209484
268 1 0.56713 0.537512 0.114862
269 2 0.572181 0.522528 0.13942
270 2 0.563995 0.514634 0.0929865
271 1 0.838849 0.630102 0.653195
272 2 0.845108 0.607914 0.666737
273 2 0.839341 0.628056 0.619965
274 1 0.86215 0.385328 0.481362
275 2 0.857405 0.366302 0.503701
276 2 0.856461 0.411675 0.473796
277 1 0.862517 0.394006 0.38855
278 2 0.858441 0.372966 0.366553
279 2 0.86612 0.376785 0.41444
280 1 0.36606 0.736905 0.471613
281 2 0.374122 0.724441 0.486899
282 2 0.368919 0.754314 0.444831
283 1 0.303926 0.362169 0.529657
284 2 0.310366 0.386981 0.535545
285 2 0.308647 0.332931 0.532601
286 1 0.0274934 0.417556 0.319054
287 2 0.0191342 0.429569 0.305256
288 2 0.0252292 0.401873 0.347483
289 1 0.314812 0.584194 0.160526
290 2 0.322665 0.570195 0.145368
291 2 0.314324 0.57348 0.192049
292 1 0.134135 0.506815 0.460254
293 2 0.124484 0.515323 0.458297
294 2 0.135067 0.479301 0.478813
295 1 0.202105 0.547289 0.701796
296 2 0.192869 0.546273 0.689053
297 2 0.204375 0.578678 0.710076
298 1 0.268066 0.53603 0.309262
299 2 0.267771 0.568077 0.318378
300 2 0.258792 0.525355 0.302828
ITEM: TIMESTEP
4800
ITEM: NUMBER OF ATOMS
300
ITEM: BOX BOUNDS pp ff pp
0.0000000000000000e+00 1.0000000000000000e+02
0.0000000000000000e+00 3.0000000000000000e+01
0.0000000000000000e+00 3.0000000000000000e+01
ITEM: ATOMS id type xs ys zs
1 1 0.3664 0.711709 0.957972
2 2 0.356663 0.71065 0.950459
3 2 0.371693 0.717322 0.930253
4 1 0.578477 0.508875 0.170914
5 2 0.5747 0.519203 0.2
6 2 0.588462 0.510222 0.172107
7 1 0.00760905 0.522219 0.179651
8 2 0.0112569 0.491184 0.179368
9 2 0.0108992 0.538202 0.206769
10 1 0.578462 0.433483 0.406286
11 2 0.570489 0.449064 0.419015
12 2 0.576935 0.400545 0.406887
13 1 0.846255 0.454212 0.470307
14 2 0.841733 0.453831 0.440578
15 2 0.846727 0.485547 0.481564
16 1 0.267564 0.444623 0.701499
17 2 0.266742 0.416413 0.683955
18 2 0.265144 0.470555 0.682171
19 1 0.387706 0.109431 0.402144
20 2 0.386687 0.0960571 0.371801
21 2 0.384061 0.14047 0.402029
22 1 0.139593 0.445372 0.38847
23 2 0.141017 0.427772 0.416377
24 2 0.147062 0.467219 0.38474
25 1 0.339989 0.809287 0.385284
26 2 0.337113 0.840631 0.391348
27 2 0.335018 0.788511 0.405408
28 1 0.563355 0.380198 0.30537
29 2 0.56945 0.403925 0.317005
30 2 0.561842 0.384898 0.272757
31 1 0.56876 0.413765 0.222482
32 2 0.568216 0.433947 0.196015
33 2 0.578068 0.414177 0.234661
34 1 0.155185 0.53791 0.533598
35 2 0.150582 0.554912 0.557817
36 2 0.14841 0.527078 0.511603
37 1 0.295564 0.435521 0.692128
38 2 0.286059 0.438037 0.702177
39 2 0.297966 0.403359 0.688576
40 1 0.344778 0.243958 0.466071
41 2 0.337311 0.246304 0.488118
42 2 0.345453 0.212544 0.455154
43 1 0.134387 0.328769 0.466157
44 2 0.13854 0.313609 0.439897
45 2 0.12583 0.313441 0.474071
46 1 0.551414 0.395636 0.457588
47 2 0.553392 0.380879 0.428435
48 2 0.55998 0.401655 0.4737
49 1 0.606542 0.535195 0.155014
50 2 0.600664 0.549732 0.1323
51 2 0.616126 0.540983 0.147466
52 1 0.840993 0.556196 0.621526
53 2 0.83407 0.53504 0.61008
54 2 0.848744 0.538967 0.633641
55 1 0.643363 0.961702 0.472683
56 2 0.651976 0.977781 0.478008
57 2 0.639022 0.954825 0.501913
58 1 0.248208 0.479122 0.540576
59 2 0.245964 0.477357 0.508142
60 2 0.241481 0.46178 0.558111
61 1 0.273857 0.147706 0.938089
62 2 0.278988 0.127762 0.917576
63 2 0.274963 0.17939 0.928411
64 1 0.331173 0.414243 0.527584
65 2 0.330091 0.403468 0.496246
66 2 0.337066 0.393194 0.54438
67 1 0.324561 0.549737 0.238638
68 2 0.328375 0.541396 0.268301
69 2 0.314592 0.547374 0.239732
70 1 0.867462 0.477551 0.365326
71 2 0.866917 0.44508 0.372639
72 2 0.873617 0.492649 0.386825
73 1 0.0202653 0.422129 0.184039
74 2 0.0200357 0.413634 0.151816
75 2 0.0267402 0.402521 0.200189
76 1 0.789474 0.608999 0.665562
77 2 0.797579 0.621009 0.680957
78 2 0.783651 0.634292 0.655838
79 1 0.285449 0.0448507 0.9738
80 2 0.278108 0.0288879 0.989847
81 2 0.283447 0.0775006 0.973027
82 1 0.593527 0.573225 0.0865397
83 2 0.592591 0.600258 0.0672891
84 2 0.585357 0.55424 0.0835297
85 1 0.24872 0.53019 0.686908
86 2 0.25518 0.531879 0.661519
87 2 0.252719 0.544749 0.713768
88 1 0.514059 0.909692 0.786961
89 2 0.505596 0.903407 0.770351
90 2 0.514427 0.890732 0.814349
91 1 0.288875 0.735052 0.158841
92 2 0.29464 0.71215 0.173584
93 2 0.293654 0.76433 0.158436
94 1 0.535831 0.912121 0.910851
95 2 0.545056 0.899258 0.911079
96 2 0.533135 0.919984 0.941973
97 1 0.609771 0.521858 0.25138
98 2 0.611793 0.52167 0.218736
99 2 0.602354 0.543363 0.257496
100 1 0.152541 0.419269 0.570156
101 2 0.151001 0.398572 0.595776
102 2 0.160234 0.439403 0.577105
103 1 0.295635 0.492001 0.620226
104 2 0.295809 0.474541 0.648614
105 2 0.305003 0.497936 0.610192
106 1 0.26476 0.500791 0.625304
107 2 0.274392 0.498733 0.616581
108 2 0.259023 0.4969 0.598282
109 1 0.228267 0.447501 0.597642
110 2 0.226602 0.472878 0.618531
111 2 0.230783 0.420372 0.6151
112 1 0.302002 0.671717 0.201088
113 2 0.308268 0.678131 0.226262
114 2 0.30471 0.643335 0.186118
115 1 0.565035 0.910535 0.922416
116 2 0.574929 0.908141 0.918198
117 2 0.561566 0.93652 0.905035
118 1 0.284652 0.635022 0.264318
119 2 0.286782 0.609692 0.243846
120 2 0.289336 0.662527 0.253791
121 1 0.0030591 0.416489 0.252202
122 2 0.00948284 0.421744 0.227202
123 2 0.996331 0.441138 0.25299
124 1 0.143531 0.29564 0.382489
125 2 0.139224 0.273053 0.362618
126 2 0.141043 0.326274 0.372297
127 1 0.790999 0.514498 0.64662
128 2 0.782182 0.502306 0.656551
129 2 0.790796 0.547787 0.648191
130 1 0.599059 0.433748 0.266036
131 2 0.603479 0.461992 0.256221
132 2 0.605787 0.409092 0.266478
133 1 0.165997 0.489621 0.75101
134 2 0.158192 0.46884 0.749446
135 2 0.173652 0.47436 0.766075
136 1 0.260994 0.364131 0.592562
137 2 0.270775 0.361145 0.59882
138 2 0.259075 0.394872 0.581371
139 1 0.394947 0.687604 0.997269
140 2 0.385613 0.689988 0.985549
141 2 0.394689 0.683758 0.0303687
142 1 0.271042 0.663632 0.142684
143 2 0.274846 0.691066 0.156744
144 2 0.27259 0.664616 0.109767
145 1 0.291854 0.396933 0.595797
146 2 0.293969 0.428791 0.602613
147 2 0.298861 0.384475 0.575539
148 1 0.336989 0.148289 0.44646
149 2 0.33311 0.129082 0.470439
150 2 0.345427 0.134461 0.435107
151 1 0.84577 0.493149 0.310555
152 2 0.852589 0.49016 0.334751
153 2 0.844657 0.525333 0.302709
154 1 0.336199 0.745602 0.451415
155 2 0.32872 0.723486 0.450647
156 2 0.344713 0.730078 0.459452
157 1 0.808017 0.957086 0.257536
158 2 0.808084 0.968311 0.288922
159 2 0.798688 0.958139 0.24558
160 1 0.763956 0.0618969 0.0384705
161 2 0.764317 0.0951822 0.0371449
162 2 0.760695 0.052359 0.0685036
163 1 0.567553 0.521699 0.260758
164 2 0.573257 0.510744 0.285849
165 2 0.557911 0.517469 0.268507
166 1 0.363783 0.0982391 0.451772
167 2 0.365264 0.0922992 0.484199
168 2 0.372337 0.0935621 0.435153
169 1 0.0380698 0.376299 0.24069
170 2 0.0340689 0.37652 0.271238
171 2 0.0468079 0.360106 0.2414
172 1 0.124294 0.37559 0.356447
173 2 0.115771 0.383631 0.340977
174 2 0.1292 0.403406 0.364815
175 1 0.579751 0.457876 0.313722
176 2 0.580846 0.45988 0.346794
177 2 0.588133 0.44575 0.300175
178 1 0.369821 0.798263 0.403744
179 2 0.375801 0.793792 0.377404
180 2 0.360463 0.803633 0.393287
181 1 0.298361 0.347678 0.679508
182 2 0.289381 0.333337 0.676444
183 2 0.300915 0.361916 0.650594
184 1 0.846004 0.670387 0.0544506
185 2 0.846247 0.666955 0.0213042
186 2 0.843799 0.641056 0.06848
187 1 0.843777 0.350847 0.342024
188 2 0.846648 0.370024 0.316494
189 2 0.835283 0.335135 0.334114
190 1 0.348819 0.338532 0.489959
191 2 0.345934 0.313636 0.469987
192 2 0.353296 0.325962 0.516984
193 1 0.847604 0.409931 0.280455
194 2 0.848135 0.440767 0.292989
195 2 0.851697 0.409498 0.250045
196 1 0.211399 0.406313 0.776121
197 2 0.214148 0.403116 0.80801
198 2 0.219129 0.417598 0.758235
199 1 0.231716 0.447603 0.728334
200 2 0.229215 0.464827 0.701041
201 2 0.241598 0.442489 0.728614
202 1 0.180524 0.536247 0.670781
203 2 0.17595 0.533449 0.641271
204 2 0.174705 0.523266 0.694582
205 1 0.566789 0.342697 0.389356
206 2 0.560323 0.318979 0.398523
207 2 0.566183 0.347417 0.356421
208 1 0.789571 0.0389214 0.00736686
209 2 0.790109 0.00862741 0.0211573
210 2 0.780161 0.0500714 0.00908105
211 1 0.559672 0.971738 0.860629
212 2 0.550383 0.964049 0.850972
213 2 0.562897 0.998203 0.843448
214 1 0.295126 0.540948 0.247635
215 2 0.290672 0.51884 0.267684
216 2 0.288965 0.548758 0.222569
217 1 0.185327 0.431827 0.774774
218 2 0.180208 0.40435 0.76671
219 2 0.195127 0.42525 0.77399
220 1 0.818679 0.489034 0.621255
221 2 0.810936 0.499153 0.639764
222 2 0.815298 0.475094 0.593151
223 1 0.173599 0.48174 0.589079
224 2 0.182753 0.477952 0.576207
225 2 0.168242 0.502009 0.569551
226 1 0.278473 0.573152 0.185512
227 2 0.269044 0.56878 0.195715
228 2 0.279327 0.602891 0.170728
229 1 0.815318 0.64022 0.700557
230 2 0.824374 0.646915 0.688111
231 2 0.816243 0.629184 0.731859
232 1 0.514649 0.869166 0.865397
233 2 0.522071 0.885154 0.880997
234 2 0.513409 0.839051 0.879076
235 1 0.272607 0.590023 0.334128
236 2 0.277803 0.612866 0.317117
237 2 0.264898 0.604709 0.349457
238 1 0.141948 0.41443 0.477665
239 2 0.138906 0.383189 0.47198
240 2 0.146651 0.415849 0.507047
241 1 0.0465713 0.359127 0.406264
242 2 0.0522405 0.358832 0.433722
243 2 0.0408855 0.386547 0.406115
244 1 0.29029 0.0891378 0.88787
245 2 0.291724 0.0643996 0.909694
246 2 0.294202 0.0806287 0.858398
247 1 0.388831 0.727436 0.912022
248 2 0.39092 0.75977 0.907884
249 2 0.396524 0.712386 0.927088
250 1 0.83573 0.43343 0.393249
251 2 0.841563 0.410111 0.379489
252 2 0.827199 0.435773 0.376015
253 1 0.221296 0.510814 0.666771
254 2 0.229468 0.529886 0.669071
255 2 0.214602 0.520514 0.689558
256 1 0.534905 0.949901 0.825106
257 2 0.525773 0.948945 0.811555
258 2 0.535027 0.931392 0.852826
259 1 0.383068 0.0758731 0.320386
260 2 0.388255 0.0748885 0.291903
261 2 0.377773 0.0477864 0.323646
262 1 0.022475 0.140515 0.699882
263 2 0.0233356 0.117064 0.676368
264 2 0.031051 0.142763 0.716878
265 1 0.775632 0.172434 0.208996
266 2 0.779165 0.189598 0.23503
267 2 0.782777 0.152261 0.197295
268 1 0.571294 0.512102 0.0801608
269 2 0.570225 0.512783 0.113296
270 2 0.567326 0.483968 0.068138
271 1 0.840114 0.631992 0.656536
272 2 0.839301 0.59985 0.648132
273 2 0.840924 0.650501 0.628945
274 1 0.865119 0.369842 0.475742
275 2 0.860489 0.348118 0.495768
276 2 0.859424 0.396996 0.472077
277 1 0.864236 0.394747 0.385617
278 2 0.85741 0.375818 0.370285
279 2 0.866794 0.380608 0.414574
280 1 0.363853 0.715711 0.444824
281 2 0.369391 0.692467 0.429657
282 2 0.367069 0.745984 0.435896
283 1 0.307407 0.370781 0.52564
284 2 0.315285 0.387815 0.537099
285 2 0.308921 0.362756 0.493683
286 1 0.0229189 0.37651 0.312205
287 2 0.0151404 0.389094 0.295458
288 2 0.0195923 0.35654 0.336482
289 1 0.31116 0.595496 0.171502
290 2 0.307451 0.573007 0.150229
291 2 0.316926 0.58013 0.193986
292 1 0.134274 0.504152 0.484387
293 2 0.137134 0.511257 0.453246
294 2 0.133893 0.471078 0.488343
295 1 0.203728 0.548727 0.724468
296 2 0.19633 0.54621 0.702184
297 2 0.20073 0.567676 0.750006
298 1 0.276754 0.506788 0.297183
299 2 0.273998 0.536138 0.31004
300 2 0.272674 0.482112 0.314994
ITEM: TIMESTEP
4900
ITEM: NUMBER OF ATOMS
300
ITEM: BOX BOUNDS pp ff pp
0.0000000000000000e+00 1.0000000000000000e+02
0.0000000000000000e+00 3.0000000000000000e+01
0.0000000000000000e+00 3.0000000000000000e+01
ITEM: ATOMS id type xs ys zs
1 1 0.366668 0.704711 0.976259
2 2 0.35784 0.719435 0.970937
3 2 0.373647 0.719191 0.957279
4 1 0.572647 0.530688 0.160413
5 2 0.572153 0.523099 0.192829
6 2 0.581861 0.541343 0.153044
7 1 0.00248841 0.512263 0.135644
8 2 0.00857106 0.515731 0.161873
9 2 -0.00176136 0.541602 0.128596
10 1 0.574089 0.441211 0.411132
11 2 0.567064 0.440065 0.434827
12 2 0.576734 0.410186 0.402715
13 1 0.850142 0.439536 0.4643
14 2 0.854612 0.458096 0.440964
15 2 0.844028 0.458716 0.48241
16 1 0.271804 0.442412 0.720061
17 2 0.264277 0.421131 0.714688
18 2 0.271707 0.466112 0.696623
19 1 0.383215 0.127784 0.398031
20 2 0.385557 0.110278 0.370759
21 2 0.383434 0.160342 0.390922
22 1 0.141544 0.437779 0.383297
23 2 0.141176 0.430079 0.415706
24 2 0.147742 0.463544 0.378774
25 1 0.341593 0.811021 0.404226
26 2 0.335987 0.834803 0.418235
27 2 0.338581 0.781153 0.415098
28 1 0.566693 0.385484 0.311848
29 2 0.571043 0.412996 0.323847
30 2 0.568306 0.383509 0.279011
31 1 0.57677 0.408818 0.224659
32 2 0.575623 0.441931 0.224501
33 2 0.585696 0.40113 0.237567
34 1 0.149269 0.550151 0.567182
35 2 0.142954 0.569114 0.584746
36 2 0.144238 0.534271 0.543146
37 1 0.301519 0.448782 0.686563
38 2 0.291987 0.440997 0.692966
39 2 0.30709 0.421109 0.687226
40 1 0.334935 0.250836 0.46209
41 2 0.327094 0.245178 0.481988
42 2 0.337175 0.222986 0.445365
43 1 0.13857 0.319292 0.463
44 2 0.138758 0.310439 0.43087
45 2 0.13967 0.292195 0.482064
46 1 0.550757 0.395927 0.460949
47 2 0.552087 0.382652 0.430696
48 2 0.556662 0.380372 0.4829
49 1 0.601995 0.549786 0.153949
50 2 0.599397 0.56112 0.123822
51 2 0.611838 0.543939 0.15461
52 1 0.838051 0.568157 0.602148
53 2 0.831928 0.542252 0.597289
54 2 0.84748 0.557278 0.604361
55 1 0.643458 0.962586 0.497297
56 2 0.645718 0.956231 0.529139
57 2 0.647851 0.99101 0.487875
58 1 0.250411 0.483143 0.554447
59 2 0.249111 0.473026 0.522982
60 2 0.243054 0.471016 0.573492
61 1 0.268469 0.144352 0.941094
62 2 0.273411 0.135511 0.913497
63 2 0.263392 0.172498 0.935394
64 1 0.334632 0.4037 0.526585
65 2 0.330812 0.422279 0.502014
66 2 0.341902 0.384304 0.514432
67 1 0.323965 0.57618 0.245213
68 2 0.325323 0.566718 0.276854
69 2 0.315446 0.563096 0.233659
70 1 0.862584 0.47339 0.391337
71 2 0.865046 0.442574 0.381635
72 2 0.870471 0.493556 0.387693
73 1 0.0162765 0.441377 0.189364
74 2 0.0126159 0.429052 0.160898
75 2 0.0248651 0.42599 0.196764
76 1 0.798723 0.598757 0.656612
77 2 0.800392 0.612438 0.686495
78 2 0.80577 0.608856 0.635223
79 1 0.289621 0.0636575 0.949338
80 2 0.283264 0.0400829 0.959652
81 2 0.286277 0.0935759 0.958919
82 1 0.59845 0.561795 0.0689252
83 2 0.59829 0.585004 0.0450056
84 2 0.591055 0.539957 0.0637706
85 1 0.2479 0.535274 0.658599
86 2 0.255954 0.524454 0.642068
87 2 0.249499 0.566394 0.669288
88 1 0.507129 0.94055 0.797616
89 2 0.503158 0.929673 0.769023
90 2 0.511351 0.91501 0.813769
91 1 0.293971 0.712174 0.168303
92 2 0.299596 0.694487 0.189438
93 2 0.298433 0.741329 0.161985
94 1 0.534158 0.884693 0.927653
95 2 0.54323 0.885812 0.91368
96 2 0.534534 0.898468 0.95798
97 1 0.601508 0.499389 0.248542
98 2 0.591933 0.491677 0.242793
99 2 0.60397 0.526523 0.231006
100 1 0.154679 0.420383 0.562668
101 2 0.150245 0.404652 0.588069
102 2 0.160425 0.44498 0.574467
103 1 0.298642 0.492372 0.608866
104 2 0.298319 0.47616 0.637971
105 2 0.308145 0.495139 0.598856
106 1 0.269917 0.506257 0.621589
107 2 0.278813 0.513672 0.608291
108 2 0.263728 0.495783 0.597594
109 1 0.232928 0.435752 0.605145
110 2 0.227405 0.453087 0.626862
111 2 0.234526 0.405089 0.617082
112 1 0.302834 0.664261 0.24151
113 2 0.307513 0.665302 0.270949
114 2 0.306627 0.639514 0.223103
115 1 0.560453 0.885305 0.888997
116 2 0.569171 0.870543 0.895975
117 2 0.562151 0.915978 0.87724
118 1 0.271597 0.627529 0.250458
119 2 0.27366 0.60287 0.229108
120 2 0.278689 0.650938 0.248381
121 1 -2.59541e-05 0.410993 0.257902
122 2 0.00534078 0.423125 0.232527
123 2 0.992745 0.432611 0.265845
124 1 0.136673 0.288115 0.377683
125 2 0.139714 0.271834 0.350419
126 2 0.13251 0.317092 0.368803
127 1 0.790632 0.519628 0.610854
128 2 0.783628 0.522702 0.58726
129 2 0.791106 0.547766 0.628654
130 1 0.601618 0.409214 0.279782
131 2 0.603271 0.441242 0.272368
132 2 0.609511 0.396908 0.296133
133 1 0.167441 0.47655 0.754049
134 2 0.158305 0.463197 0.751709
135 2 0.173847 0.453604 0.765392
136 1 0.258177 0.378576 0.626228
137 2 0.268148 0.376136 0.626987
138 2 0.255444 0.398455 0.60107
139 1 0.392514 0.687394 0.0133774
140 2 0.383193 0.697197 0.0204207
141 2 0.393282 0.654469 0.0179052
142 1 0.279493 0.628445 0.122804
143 2 0.283066 0.65691 0.135415
144 2 0.278305 0.631684 0.089865
145 1 0.285931 0.401154 0.598389
146 2 0.287329 0.433707 0.603844
147 2 0.293218 0.389599 0.578702
148 1 0.334726 0.151388 0.449944
149 2 0.3295 0.130969 0.430179
150 2 0.344293 0.141702 0.450581
151 1 0.84775 0.479685 0.310294
152 2 0.851812 0.476958 0.340631
153 2 0.843296 0.509387 0.307383
154 1 0.335525 0.727147 0.441794
155 2 0.330154 0.701322 0.430671
156 2 0.345042 0.717753 0.44584
157 1 0.811636 0.959014 0.262028
158 2 0.818266 0.958743 0.237077
159 2 0.816112 0.969383 0.289974
160 1 0.768562 0.0795737 0.0595121
161 2 0.777248 0.0687663 0.0470179
162 2 0.763411 0.0537387 0.0717104
163 1 0.570858 0.502856 0.246481
164 2 0.571721 0.498804 0.279442
165 2 0.561441 0.496544 0.237209
166 1 0.355782 0.102481 0.431498
167 2 0.352607 0.0717141 0.438742
168 2 0.364518 0.100703 0.415372
169 1 0.0362079 0.377228 0.228739
170 2 0.0308253 0.36562 0.254321
171 2 0.0458788 0.377933 0.237191
172 1 0.134635 0.373094 0.321931
173 2 0.130188 0.390858 0.297934
174 2 0.136656 0.392912 0.347873
175 1 0.577528 0.474277 0.331055
176 2 0.577037 0.470587 0.364143
177 2 0.585254 0.456754 0.319183
178 1 0.371841 0.799389 0.414365
179 2 0.378029 0.810342 0.39058
180 2 0.362682 0.811697 0.409127
181 1 0.309897 0.359362 0.645768
182 2 0.317218 0.340948 0.632481
183 2 0.303672 0.369361 0.621674
184 1 0.839983 0.658012 0.0757177
185 2 0.837174 0.664028 0.107138
186 2 0.837293 0.683621 0.0563553
187 1 0.844178 0.373258 0.348294
188 2 0.844282 0.377179 0.315194
189 2 0.835462 0.359811 0.357584
190 1 0.348413 0.334116 0.483309
191 2 0.341893 0.308982 0.480648
192 2 0.356704 0.323343 0.498514
193 1 0.847865 0.399078 0.260309
194 2 0.849899 0.426828 0.277488
195 2 0.841872 0.406484 0.234673
196 1 0.206583 0.440082 0.809637
197 2 0.207864 0.465545 0.830719
198 2 0.214515 0.437799 0.78947
199 1 0.228545 0.461431 0.756759
200 2 0.226239 0.461999 0.72433
201 2 0.2378 0.473301 0.761074
202 1 0.175224 0.544955 0.669509
203 2 0.17363 0.539548 0.637048
204 2 0.168508 0.527944 0.687415
205 1 0.56472 0.344318 0.392037
206 2 0.560417 0.314269 0.390473
207 2 0.567397 0.353977 0.361407
208 1 0.786005 0.0284046 0.0154306
209 2 0.779341 0.00369904 0.0127293
210 2 0.792655 0.0261768 0.990634
211 1 0.557523 0.971757 0.867998
212 2 0.548107 0.969331 0.857038
213 2 0.561607 0.999953 0.856563
214 1 0.300319 0.542068 0.243391
215 2 0.296416 0.523214 0.267607
216 2 0.293428 0.54726 0.2198
217 1 0.184284 0.403224 0.782445
218 2 0.183775 0.384547 0.810003
219 2 0.192345 0.422889 0.783987
220 1 0.818828 0.497698 0.605629
221 2 0.810028 0.51253 0.600095
222 2 0.817384 0.469733 0.623118
223 1 0.170997 0.503219 0.589247
224 2 0.177127 0.493335 0.564838
225 2 0.16273 0.51648 0.575981
226 1 0.27918 0.559869 0.183391
227 2 0.276159 0.532995 0.166434
228 2 0.280343 0.585455 0.162381
229 1 0.815469 0.637946 0.731567
230 2 0.824152 0.635311 0.715241
231 2 0.816402 0.624545 0.761929
232 1 0.520766 0.880821 0.849648
233 2 0.525399 0.884796 0.87892
234 2 0.518888 0.848458 0.844694
235 1 0.271616 0.57067 0.326753
236 2 0.269509 0.58717 0.298654
237 2 0.263227 0.566322 0.344368
238 1 0.145461 0.402827 0.475785
239 2 0.143314 0.371829 0.465837
240 2 0.149237 0.401968 0.50664
241 1 0.0435979 0.335946 0.392821
242 2 0.0423603 0.304692 0.403649
243 2 0.0476138 0.354443 0.417107
244 1 0.284686 0.102787 0.871349
245 2 0.288922 0.0839644 0.894961
246 2 0.287335 0.0913846 0.841296
247 1 0.394872 0.740099 0.926343
248 2 0.398807 0.725736 0.899272
249 2 0.398774 0.726189 0.953703
250 1 0.83196 0.447813 0.389904
251 2 0.838844 0.434359 0.409993
252 2 0.834345 0.441491 0.358155
253 1 0.222402 0.497215 0.669876
254 2 0.231264 0.512153 0.665966
255 2 0.21618 0.517674 0.686077
256 1 0.532586 0.97839 0.837117
257 2 0.52532 0.999673 0.830529
258 2 0.528979 0.947419 0.834401
259 1 0.38191 0.0789239 0.318235
260 2 0.379411 0.0487827 0.306692
261 2 0.384194 0.0989012 0.29266
262 1 0.0234458 0.135455 0.704829
263 2 0.019548 0.110111 0.722148
264 2 0.0328089 0.141083 0.715094
265 1 0.78039 0.162359 0.223387
266 2 0.783898 0.172908 0.194007
267 2 0.774588 0.185977 0.236776
268 1 0.57775 0.507381 0.0745626
269 2 0.572022 0.515975 0.100499
270 2 0.57563 0.476107 0.0654452
271 1 0.83608 0.650699 0.666721
272 2 0.837389 0.621175 0.651875
273 2 0.833588 0.673505 0.643874
274 1 0.870317 0.362663 0.454899
275 2 0.872941 0.341576 0.479188
276 2 0.864028 0.385545 0.467067
277 1 0.869754 0.387783 0.372819
278 2 0.861212 0.373335 0.363252
279 2 0.871518 0.380625 0.404839
280 1 0.361604 0.714447 0.437775
281 2 0.368194 0.692805 0.42512
282 2 0.36367 0.745087 0.4266
283 1 0.307238 0.397438 0.533197
284 2 0.317044 0.391617 0.536157
285 2 0.305758 0.422446 0.511718
286 1 0.0182412 0.343107 0.295952
287 2 0.0111771 0.361628 0.281336
288 2 0.0169993 0.343942 0.329017
289 1 0.313458 0.617784 0.161584
290 2 0.319106 0.62132 0.134305
291 2 0.317736 0.595766 0.182149
292 1 0.132444 0.490418 0.504642
293 2 0.124752 0.478918 0.486713
294 2 0.14061 0.472381 0.49794
295 1 0.203172 0.549733 0.699984
296 2 0.194429 0.550604 0.683831
297 2 0.20318 0.572741 0.724103
298 1 0.288692 0.498373 0.321333
299 2 0.282907 0.523802 0.330952
300 2 0.290745 0.479056 0.347622
ITEM: TIMESTEP
5000
ITEM: NUMBER OF ATOMS
300
ITEM: BOX BOUNDS pp ff pp
0.0000000000000000e+00 1.0000000000000000e+02
0.0000000000000000e+00 3.0000000000000000e+01
0.0000000000000000e+00 3.0000000000000000e+01
ITEM: ATOMS id type xs ys zs
1 1 0.369827 0.708747 0.972364
2 2 0.361282 0.726023 0.973537
3 2 0.376999 0.727641 0.958851
4 1 0.572495 0.525229 0.163847
5 2 0.568556 0.515424 0.192874
6 2 0.580192 0.545712 0.169614
7 1 0.00248025 0.489736 0.120849
8 2 0.997048 0.484291 0.1483
9 2 1.00215 0.522131 0.113068
10 1 0.573142 0.445522 0.408784
11 2 0.574385 0.449593 0.441607
12 2 0.572591 0.412988 0.401768
13 1 0.856782 0.456864 0.464841
14 2 0.863332 0.460629 0.439936
15 2 0.851139 0.484268 0.467365
16 1 0.270503 0.460092 0.732731
17 2 0.267748 0.475828 0.704817
18 2 0.279943 0.468165 0.740197
19 1 0.372846 0.135953 0.376614
20 2 0.37801 0.120529 0.352595
21 2 0.368564 0.163391 0.364184
22 1 0.143538 0.41536 0.393464
23 2 0.142842 0.404165 0.424776
24 2 0.149916 0.441009 0.392381
25 1 0.337665 0.799897 0.422797
26 2 0.333674 0.817048 0.3975
27 2 0.337683 0.767401 0.415374
28 1 0.565072 0.382925 0.315101
29 2 0.568351 0.413977 0.320338
30 2 0.565477 0.376018 0.282519
31 1 0.580749 0.386666 0.225692
32 2 0.58694 0.361463 0.218619
33 2 0.585187 0.41558 0.218196
34 1 0.1436 0.554224 0.57184
35 2 0.139507 0.579787 0.555362
36 2 0.139616 0.525646 0.560975
37 1 0.299826 0.445811 0.704638
38 2 0.295242 0.421914 0.722149
39 2 0.306613 0.432022 0.684412
40 1 0.333928 0.253072 0.452944
41 2 0.334486 0.229885 0.476819
42 2 0.337856 0.241055 0.424742
43 1 0.139468 0.307368 0.449113
44 2 0.135506 0.305122 0.41859
45 2 0.146807 0.284952 0.452312
46 1 0.549198 0.407659 0.455403
47 2 0.55237 0.386609 0.43182
48 2 0.54437 0.433136 0.441152
49 1 0.599895 0.564227 0.173201
50 2 0.599792 0.559566 0.140197
51 2 0.609153 0.559308 0.184797
52 1 0.831934 0.586219 0.579942
53 2 0.826705 0.558632 0.573143
54 2 0.840687 0.585176 0.563853
55 1 0.644447 0.965497 0.525117
56 2 0.647207 0.975247 0.494599
57 2 0.634906 0.955535 0.524482
58 1 0.25823 0.481636 0.556068
59 2 0.257359 0.493957 0.525232
60 2 0.249674 0.466773 0.564826
61 1 0.266948 0.130458 0.942164
62 2 0.268311 0.138415 0.910114
63 2 0.259851 0.149979 0.955214
64 1 0.332912 0.392787 0.528918
65 2 0.336452 0.411091 0.503683
66 2 0.337154 0.362608 0.528318
67 1 0.328294 0.586363 0.249955
68 2 0.336372 0.569717 0.260401
69 2 0.320397 0.565918 0.249772
70 1 0.872065 0.471945 0.391685
71 2 0.872292 0.438724 0.389061
72 2 0.878899 0.485224 0.371292
73 1 0.0112974 0.433663 0.19388
74 2 0.011812 0.454476 0.167899
75 2 0.0203011 0.420233 0.199358
76 1 0.811361 0.576417 0.651901
77 2 0.807583 0.593843 0.677374
78 2 0.819692 0.591247 0.640945
79 1 0.292179 0.0836386 0.92975
80 2 0.294289 0.0688049 0.958761
81 2 0.282887 0.0959168 0.930771
82 1 0.604954 0.536404 0.0823169
83 2 0.610796 0.541983 0.0558443
84 2 0.596087 0.52484 0.0721284
85 1 0.24102 0.549037 0.629741
86 2 0.250082 0.538086 0.620866
87 2 0.241451 0.561937 0.660444
88 1 0.504907 0.966822 0.822463
89 2 0.495072 0.971014 0.82681
90 2 0.507362 0.935266 0.829419
91 1 0.287551 0.671272 0.163671
92 2 0.280521 0.657571 0.183017
93 2 0.296447 0.668795 0.178692
94 1 0.530678 0.848466 0.916854
95 2 0.538016 0.848481 0.894206
96 2 0.534318 0.858268 0.946314
97 1 0.594503 0.458549 0.209717
98 2 0.590454 0.487525 0.219173
99 2 0.597463 0.460729 0.177953
100 1 0.159336 0.440267 0.548597
101 2 0.166715 0.422415 0.534907
102 2 0.163207 0.466456 0.564683
103 1 0.296414 0.493417 0.625865
104 2 0.297607 0.479936 0.65609
105 2 0.305364 0.500957 0.61305
106 1 0.268484 0.508857 0.645143
107 2 0.277891 0.510472 0.633955
108 2 0.263504 0.48535 0.628322
109 1 0.236399 0.443924 0.599623
110 2 0.240852 0.419116 0.616218
111 2 0.233569 0.467588 0.621119
112 1 0.297204 0.651119 0.26845
113 2 0.299704 0.680039 0.282779
114 2 0.305272 0.63771 0.254028
115 1 0.553479 0.863796 0.876276
116 2 0.561719 0.846245 0.883255
117 2 0.556059 0.894532 0.866661
118 1 0.274631 0.605632 0.245438
119 2 0.274546 0.595699 0.21362
120 2 0.282451 0.625767 0.250559
121 1 0.998324 0.397641 0.271945
122 2 0.00288752 0.412685 0.246383
123 2 0.994946 0.420651 0.293273
124 1 0.135285 0.291893 0.3615
125 2 0.135663 0.262209 0.346386
126 2 0.134348 0.315902 0.338589
127 1 0.793417 0.540169 0.587505
128 2 0.784852 0.556367 0.58169
129 2 0.797663 0.552189 0.615188
130 1 0.609185 0.453833 0.294182
131 2 0.606928 0.469847 0.265932
132 2 0.616157 0.430744 0.288015
133 1 0.172744 0.442059 0.728508
134 2 0.168129 0.413212 0.722002
135 2 0.181417 0.435997 0.743953
136 1 0.259332 0.378165 0.631672
137 2 0.267908 0.394274 0.637541
138 2 0.26052 0.357589 0.605749
139 1 0.394904 0.673247 0.0387133
140 2 0.386281 0.685546 0.0271519
141 2 0.3959 0.641591 0.0288155
142 1 0.289023 0.602979 0.0864172
143 2 0.290935 0.634491 0.0952194
144 2 0.294265 0.595328 0.0590818
145 1 0.284427 0.410794 0.600528
146 2 0.286587 0.443333 0.601217
147 2 0.292179 0.393963 0.587875
148 1 0.332581 0.148845 0.431576
149 2 0.327497 0.132789 0.407781
150 2 0.338907 0.127702 0.446389
151 1 0.849394 0.46966 0.324626
152 2 0.855155 0.488291 0.344507
153 2 0.839801 0.473638 0.333155
154 1 0.339225 0.707769 0.40444
155 2 0.335677 0.677581 0.396697
156 2 0.347375 0.704509 0.423478
157 1 0.816178 0.968741 0.26909
158 2 0.817916 0.960381 0.300833
159 2 0.824545 0.980995 0.255559
160 1 0.776296 0.106324 0.0816898
161 2 0.780167 0.0890878 0.0562429
162 2 0.768531 0.089626 0.0944296
163 1 0.565314 0.496382 0.250683
164 2 0.572515 0.48692 0.271787
165 2 0.558424 0.472324 0.248468
166 1 0.355566 0.0793156 0.41706
167 2 0.355327 0.0674016 0.385939
168 2 0.362206 0.104173 0.418878
169 1 0.0379606 0.391149 0.215311
170 2 0.0347246 0.364959 0.232885
171 2 0.0427407 0.412307 0.235548
172 1 0.135366 0.372005 0.315493
173 2 0.12597 0.376027 0.304818
174 2 0.136874 0.390839 0.342533
175 1 0.582725 0.47079 0.323754
176 2 0.579088 0.464002 0.354054
177 2 0.592279 0.461078 0.322099
178 1 0.368248 0.79221 0.438242
179 2 0.372454 0.817993 0.422436
180 2 0.358379 0.792438 0.432868
181 1 0.315701 0.416261 0.637391
182 2 0.325484 0.415647 0.63051
183 2 0.310486 0.414249 0.60902
184 1 0.833796 0.648752 0.0930054
185 2 0.827599 0.671183 0.079544
186 2 0.829189 0.619228 0.0948932
187 1 0.847715 0.350282 0.332412
188 2 0.846905 0.366789 0.303579
189 2 0.842514 0.321868 0.330614
190 1 0.346903 0.315274 0.508859
191 2 0.339627 0.300075 0.491775
192 2 0.354326 0.293691 0.514611
193 1 0.84565 0.406076 0.257552
194 2 0.850804 0.423821 0.279938
195 2 0.842393 0.426255 0.233345
196 1 0.207856 0.478702 0.835766
197 2 0.210975 0.488787 0.865788
198 2 0.215478 0.479925 0.814221
199 1 0.226297 0.467038 0.771654
200 2 0.221852 0.476657 0.743386
201 2 0.23548 0.455728 0.764863
202 1 0.179588 0.51512 0.679862
203 2 0.177087 0.506169 0.648854
204 2 0.178128 0.489425 0.700531
205 1 0.55966 0.347899 0.396189
206 2 0.563272 0.316859 0.397813
207 2 0.559331 0.35774 0.36436
208 1 0.781399 0.0438552 0.0217094
209 2 0.774293 0.0206204 0.0185225
210 2 0.789082 0.0364279 0.0017088
211 1 0.559754 0.953166 0.858535
212 2 0.550445 0.965327 0.859055
213 2 0.565595 0.973167 0.840311
214 1 0.304416 0.536417 0.255903
215 2 0.299322 0.541512 0.284131
216 2 0.298753 0.519129 0.23455
217 1 0.193187 0.402571 0.795443
218 2 0.185759 0.388169 0.812489
219 2 0.198199 0.423301 0.815499
220 1 0.818093 0.505701 0.59026
221 2 0.808985 0.512489 0.578295
222 2 0.817417 0.498148 0.622648
223 1 0.168782 0.510996 0.586002
224 2 0.175637 0.535251 0.585114
225 2 0.159676 0.524175 0.581993
226 1 0.276288 0.574417 0.161047
227 2 0.272764 0.54347 0.157114
228 2 0.281044 0.583893 0.133299
229 1 0.814954 0.623668 0.740305
230 2 0.821743 0.633708 0.717987
231 2 0.814673 0.645274 0.765671
232 1 0.520047 0.884059 0.839522
233 2 0.52247 0.875282 0.870649
234 2 0.519871 0.856951 0.820133
235 1 0.264337 0.57339 0.326254
236 2 0.268908 0.583368 0.298336
237 2 0.254902 0.584434 0.326303
238 1 0.144106 0.394917 0.4771
239 2 0.142314 0.362136 0.476187
240 2 0.146664 0.403798 0.508076
241 1 0.0354705 0.327508 0.353662
242 2 0.0319459 0.328696 0.322491
243 2 0.0334473 0.356229 0.369179
244 1 0.277283 0.117939 0.854346
245 2 0.285942 0.109066 0.868459
246 2 0.27705 0.107059 0.822848
247 1 0.39536 0.748284 0.946809
248 2 0.398208 0.721434 0.929487
249 2 0.402912 0.758522 0.966114
250 1 0.823887 0.461513 0.378989
251 2 0.814923 0.448424 0.385853
252 2 0.831008 0.439033 0.385491
253 1 0.220777 0.500996 0.672194
254 2 0.229204 0.514649 0.660547
255 2 0.213547 0.524017 0.672861
256 1 0.532473 0.976552 0.849537
257 2 0.524947 0.993645 0.835767
258 2 0.530568 0.943895 0.84746
259 1 0.38551 0.0830757 0.311554
260 2 0.389616 0.0730835 0.282849
261 2 0.388914 0.0640721 0.336479
262 1 0.0242377 0.127578 0.712432
263 2 0.0203718 0.144176 0.738308
264 2 0.0332918 0.139804 0.705307
265 1 0.782129 0.142343 0.232341
266 2 0.778598 0.11927 0.21136
267 2 0.7775 0.171355 0.226743
268 1 0.578841 0.511598 0.0706643
269 2 0.577261 0.518204 0.102909
270 2 0.570197 0.503104 0.056213
271 1 0.831639 0.647407 0.673431
272 2 0.830623 0.661366 0.643351
273 2 0.840318 0.630907 0.674829
274 1 0.870866 0.364367 0.457833
275 2 0.876577 0.356656 0.484085
276 2 0.865095 0.39053 0.465359
277 1 0.869086 0.387668 0.371147
278 2 0.862662 0.371055 0.351741
279 2 0.869637 0.372805 0.400927
280 1 0.360982 0.704642 0.4548
281 2 0.363291 0.692896 0.485031
282 2 0.362329 0.737667 0.454239
283 1 0.307589 0.400968 0.553186
284 2 0.317107 0.395251 0.544704
285 2 0.301967 0.402583 0.525666
286 1 0.0194109 0.337592 0.279576
287 2 0.0107791 0.353879 0.275338
288 2 0.0182191 0.305615 0.271043
289 1 0.31524 0.660431 0.167798
290 2 0.317001 0.640947 0.141397
291 2 0.323378 0.661395 0.187145
292 1 0.13703 0.482368 0.527755
293 2 0.130124 0.47164 0.506164
294 2 0.143956 0.45871 0.53205
295 1 0.200723 0.570182 0.678087
296 2 0.192564 0.550926 0.677312
297 2 0.198591 0.598828 0.693581
298 1 0.288733 0.530695 0.334918
299 2 0.281306 0.552871 0.337466
300 2 0.288989 0.511793 0.36236
ITEM: TIMESTEP
5100
ITEM: NUMBER OF ATOMS
300
ITEM: BOX BOUNDS pp ff pp
0.0000000000000000e+00 1.0000000000000000e+02
0.0000000000000000e+00 3.0000000000000000e+01
0.0000000000000000e+00 3.0000000000000000e+01
ITEM: ATOMS id type xs ys zs
1 1 0.376507 0.707865 0.99148
2 2 0.382238 0.72311 0.968814
3 2 0.374334 0.729187 0.0160571
4 1 0.576281 0.529271 0.152558
5 2 0.572082 0.516713 0.180081
6 2 0.582609 0.553677 0.160964
7 1 0.00563744 0.460547 0.110384
8 2 0.0148989 0.450411 0.117821
9 2 0.0060837 0.489341 0.0936549
10 1 0.571113 0.450569 0.415111
11 2 0.576688 0.423287 0.419745
12 2 0.561774 0.444703 0.425491
13 1 0.86713 0.482622 0.472027
14 2 0.865358 0.487727 0.439622
15 2 0.867547 0.511943 0.487822
16 1 0.276105 0.480365 0.737302
17 2 0.271683 0.486663 0.708076
18 2 0.284262 0.461754 0.732252
19 1 0.36802 0.124159 0.343207
20 2 0.377488 0.117943 0.334472
21 2 0.36372 0.143437 0.320097
22 1 0.142518 0.421823 0.386356
23 2 0.143162 0.41282 0.418378
24 2 0.147061 0.451201 0.382034
25 1 0.337152 0.769754 0.407986
26 2 0.333224 0.785052 0.381421
27 2 0.338739 0.737632 0.400821
28 1 0.570474 0.368215 0.317822
29 2 0.576041 0.395724 0.320983
30 2 0.574721 0.347751 0.295642
31 1 0.58576 0.3575 0.223203
32 2 0.578475 0.344734 0.204272
33 2 0.589781 0.383851 0.207804
34 1 0.142352 0.532111 0.583468
35 2 0.142926 0.561625 0.568094
36 2 0.139278 0.508942 0.561804
37 1 0.304058 0.447867 0.708832
38 2 0.307969 0.423727 0.727765
39 2 0.310518 0.455903 0.68469
40 1 0.332155 0.271315 0.443592
41 2 0.328731 0.239996 0.443464
42 2 0.330954 0.284722 0.413337
43 1 0.141 0.288217 0.448073
44 2 0.138025 0.289585 0.416277
45 2 0.13655 0.262505 0.46324
46 1 0.548051 0.421326 0.4672
47 2 0.550656 0.401985 0.441478
48 2 0.540594 0.406879 0.484071
49 1 0.597269 0.580261 0.177419
50 2 0.600076 0.553192 0.160366
51 2 0.605367 0.597717 0.186238
52 1 0.826069 0.589492 0.590434
53 2 0.827319 0.560373 0.574755
54 2 0.818467 0.60608 0.576511
55 1 0.644248 0.968916 0.550656
56 2 0.644729 0.937063 0.560348
57 2 0.644953 0.970556 0.517446
58 1 0.254184 0.480172 0.54012
59 2 0.253692 0.510072 0.525476
60 2 0.247256 0.478251 0.564079
61 1 0.266023 0.121637 0.939782
62 2 0.263269 0.127059 0.908199
63 2 0.258364 0.108423 0.956657
64 1 0.3322 0.385636 0.533471
65 2 0.33867 0.410901 0.536245
66 2 0.337005 0.356787 0.538189
67 1 0.322172 0.58238 0.248959
68 2 0.327635 0.556408 0.259211
69 2 0.312468 0.574421 0.250121
70 1 0.869235 0.473151 0.382488
71 2 0.869662 0.440049 0.378828
72 2 0.8784 0.484965 0.388686
73 1 0.00945295 0.42921 0.207594
74 2 0.00443614 0.439188 0.18054
75 2 0.0192219 0.427758 0.200619
76 1 0.809615 0.546601 0.663255
77 2 0.811427 0.570888 0.685273
78 2 0.816787 0.546471 0.640024
79 1 0.292532 0.106139 0.905126
80 2 0.299364 0.10985 0.929185
81 2 0.283396 0.105447 0.918663
82 1 0.607003 0.49968 0.11428
83 2 0.614163 0.517856 0.0997505
84 2 0.598702 0.500806 0.0957254
85 1 0.248673 0.555123 0.629382
86 2 0.242057 0.530135 0.629905
87 2 0.257886 0.542928 0.633775
88 1 0.503842 0.982823 0.865823
89 2 0.495239 0.98498 0.848967
90 2 0.507061 0.951266 0.865499
91 1 0.294214 0.664033 0.119054
92 2 0.292567 0.696156 0.112048
93 2 0.301203 0.66166 0.142776
94 1 0.526382 0.821837 0.87577
95 2 0.536243 0.824204 0.880786
96 2 0.522251 0.80421 0.900484
97 1 0.593271 0.443499 0.192432
98 2 0.583639 0.452245 0.190514
99 2 0.59823 0.45612 0.166381
100 1 0.162499 0.428205 0.528187
101 2 0.165124 0.438846 0.558541
102 2 0.168322 0.44272 0.505303
103 1 0.29571 0.525135 0.659305
104 2 0.297873 0.507273 0.68651
105 2 0.30387 0.541594 0.649289
106 1 0.271125 0.49814 0.64003
107 2 0.279929 0.509936 0.650554
108 2 0.27266 0.474227 0.617377
109 1 0.233476 0.457478 0.607457
110 2 0.240823 0.447005 0.627498
111 2 0.225977 0.435432 0.608001
112 1 0.289499 0.65477 0.274937
113 2 0.292994 0.685035 0.267228
114 2 0.295026 0.641681 0.299437
115 1 0.554814 0.843302 0.877347
116 2 0.561733 0.825192 0.893197
117 2 0.558983 0.871289 0.86574
118 1 0.277144 0.585087 0.234343
119 2 0.274675 0.581217 0.202273
120 2 0.282441 0.613126 0.237977
121 1 0.995088 0.381768 0.275797
122 2 1.00052 0.395934 0.251671
123 2 0.989924 0.405261 0.292013
124 1 0.131608 0.294212 0.358251
125 2 0.135685 0.274 0.335493
126 2 0.132494 0.325852 0.348187
127 1 0.792537 0.552331 0.57855
128 2 0.782666 0.551884 0.583871
129 2 0.797302 0.556668 0.607532
130 1 0.603803 0.494947 0.27449
131 2 0.602794 0.473999 0.248781
132 2 0.607478 0.523985 0.263633
133 1 0.176645 0.41686 0.712678
134 2 0.171127 0.389415 0.717098
135 2 0.18255 0.421431 0.739188
136 1 0.257246 0.401743 0.641305
137 2 0.265497 0.392005 0.625183
138 2 0.259819 0.417272 0.669526
139 1 0.402348 0.682488 0.0211647
140 2 0.393932 0.671863 0.00662957
141 2 0.406103 0.658189 0.0402428
142 1 0.286311 0.585872 0.06646
143 2 0.286647 0.616873 0.0786572
144 2 0.293969 0.581238 0.0455312
145 1 0.284996 0.406146 0.62858
146 2 0.290595 0.417595 0.653715
147 2 0.290921 0.392954 0.605191
148 1 0.325917 0.181723 0.43874
149 2 0.322652 0.162767 0.463905
150 2 0.334788 0.170421 0.4283
151 1 0.850829 0.474828 0.308974
152 2 0.857125 0.469301 0.334275
153 2 0.843788 0.496479 0.318535
154 1 0.347607 0.678291 0.410732
155 2 0.351785 0.670696 0.381416
156 2 0.3547 0.679939 0.434171
157 1 0.821575 0.982125 0.283048
158 2 0.826839 0.987843 0.255291
159 2 0.811862 0.979852 0.275452
160 1 0.782753 0.128487 0.106666
161 2 0.780006 0.111099 0.0797412
162 2 0.776989 0.155583 0.109455
163 1 0.568262 0.48185 0.243422
164 2 0.577087 0.485598 0.258646
165 2 0.562091 0.464512 0.263107
166 1 0.350826 0.074279 0.404014
167 2 0.356712 0.0807439 0.430175
168 2 0.354571 0.0890253 0.376851
169 1 0.0347735 0.412142 0.216914
170 2 0.0298341 0.384729 0.226324
171 2 0.0395974 0.424995 0.243132
172 1 0.13011 0.371478 0.321691
173 2 0.125394 0.391514 0.300182
174 2 0.134542 0.389868 0.345242
175 1 0.581818 0.457998 0.321783
176 2 0.577958 0.46615 0.351433
177 2 0.590181 0.475518 0.316573
178 1 0.355975 0.796143 0.474487
179 2 0.354021 0.828706 0.477383
180 2 0.351573 0.78428 0.447007
181 1 0.31584 0.449077 0.63197
182 2 0.324854 0.434649 0.632516
183 2 0.309997 0.433356 0.609958
184 1 0.827132 0.636157 0.118199
185 2 0.833251 0.610577 0.124588
186 2 0.818277 0.630722 0.1327
187 1 0.853698 0.33223 0.315883
188 2 0.850573 0.356893 0.296026
189 2 0.846494 0.309274 0.318619
190 1 0.340521 0.296464 0.524359
191 2 0.335429 0.296993 0.495676
192 2 0.348982 0.279178 0.520263
193 1 0.845885 0.398697 0.268641
194 2 0.848497 0.427985 0.281966
195 2 0.839145 0.4037 0.24453
196 1 0.211662 0.478986 0.836448
197 2 0.220423 0.462941 0.837345
198 2 0.213042 0.509782 0.824552
199 1 0.232183 0.496633 0.750008
200 2 0.230251 0.518594 0.725772
201 2 0.242036 0.491165 0.751608
202 1 0.181199 0.488785 0.663588
203 2 0.179341 0.486356 0.630925
204 2 0.179382 0.459472 0.678255
205 1 0.552049 0.358389 0.397843
206 2 0.545278 0.335041 0.390318
207 2 0.559807 0.355984 0.376951
208 1 0.777029 0.069016 0.034035
209 2 0.769872 0.047779 0.0435681
210 2 0.779679 0.0624111 0.00257934
211 1 0.560048 0.928745 0.853555
212 2 0.550113 0.931639 0.85113
213 2 0.564428 0.951321 0.833849
214 1 0.299117 0.548191 0.274771
215 2 0.297224 0.537331 0.305647
216 2 0.290499 0.552462 0.258408
217 1 0.192445 0.417528 0.789858
218 2 0.199567 0.39812 0.776788
219 2 0.196643 0.440353 0.809716
220 1 0.820693 0.520053 0.534386
221 2 0.811441 0.522743 0.546745
222 2 0.820224 0.509421 0.502832
223 1 0.16837 0.517949 0.591391
224 2 0.17263 0.538792 0.613187
225 2 0.158423 0.519716 0.594309
226 1 0.274851 0.556708 0.147117
227 2 0.283188 0.538333 0.148137
228 2 0.272663 0.564074 0.115436
229 1 0.820671 0.61943 0.732247
230 2 0.82515 0.644527 0.716173
231 2 0.822125 0.622803 0.765053
232 1 0.511393 0.892353 0.838975
233 2 0.514071 0.862917 0.851818
234 2 0.507095 0.887622 0.80925
235 1 0.267149 0.571686 0.322438
236 2 0.268771 0.574626 0.289678
237 2 0.264118 0.600987 0.334704
238 1 0.144955 0.385608 0.468747
239 2 0.141803 0.354002 0.467429
240 2 0.151263 0.389267 0.494354
241 1 0.0338308 0.329323 0.32149
242 2 0.0274157 0.313779 0.301186
243 2 0.0287412 0.345858 0.34494
244 1 0.271075 0.126138 0.844032
245 2 0.281017 0.123359 0.846293
246 2 0.268389 0.126522 0.811926
247 1 0.400251 0.752919 0.966466
248 2 0.401984 0.731733 0.991544
249 2 0.407241 0.748932 0.942964
250 1 0.827941 0.46713 0.375227
251 2 0.823243 0.476813 0.403014
252 2 0.833612 0.440483 0.381839
253 1 0.224534 0.557592 0.691293
254 2 0.229796 0.576839 0.670481
255 2 0.214764 0.562132 0.685839
256 1 0.533508 0.95077 0.846633
257 2 0.528575 0.979094 0.852842
258 2 0.526958 0.926477 0.839983
259 1 0.391873 0.0895269 0.303779
260 2 0.400423 0.10482 0.295712
261 2 0.393884 0.0591898 0.315856
262 1 0.0254591 0.122642 0.722696
263 2 0.0208677 0.152244 0.721936
264 2 0.0279242 0.113583 0.691687
265 1 0.782716 0.113431 0.22677
266 2 0.779076 0.0824067 0.225584
267 2 0.791863 0.112929 0.240232
268 1 0.582703 0.516097 0.0719219
269 2 0.57756 0.519765 0.100274
270 2 0.576515 0.519471 0.045954
271 1 0.837789 0.64469 0.652299
272 2 0.83351 0.625172 0.629347
273 2 0.841034 0.672724 0.637871
274 1 0.865399 0.377221 0.473245
275 2 0.864493 0.372836 0.506151
276 2 0.867757 0.408996 0.466946
277 1 0.8666 0.38672 0.380104
278 2 0.863705 0.364868 0.356855
279 2 0.864591 0.374437 0.410359
280 1 0.359717 0.703787 0.487364
281 2 0.358705 0.69242 0.518517
282 2 0.357962 0.736599 0.486814
283 1 0.306997 0.385601 0.56534
284 2 0.316532 0.381572 0.556127
285 2 0.300996 0.378518 0.539633
286 1 0.0190406 0.322917 0.239913
287 2 0.00957765 0.322268 0.25067
288 2 0.0200816 0.301766 0.214384
289 1 0.314892 0.668205 0.198026
290 2 0.324821 0.66437 0.196957
291 2 0.311362 0.655292 0.226414
292 1 0.13902 0.470628 0.528477
293 2 0.132863 0.454145 0.508029
294 2 0.147725 0.454354 0.530582
295 1 0.196219 0.556918 0.699997
296 2 0.19338 0.527317 0.687941
297 2 0.190547 0.564756 0.726308
298 1 0.289646 0.523596 0.357342
299 2 0.279965 0.530529 0.35267
300 2 0.291787 0.525308 0.389858
ITEM: TIMESTEP
5200
ITEM: NUMBER OF ATOMS
300
ITEM: BOX BOUNDS pp ff pp
0.0000000000000000e+00 1.0000000000000000e+02
0.0000000000000000e+00 3.0000000000000000e+01
0.0000000000000000e+00 3.0000000000000000e+01
ITEM: ATOMS id type xs ys zs
1 1 0.384759 0.710312 0.0030797
2 2 0.391043 0.730291 0.986554
3 2 0.382249 0.724513 0.0320529
4 1 0.574186 0.528161 0.165845
5 2 0.568845 0.504364 0.180941
6 2 0.57654 0.551864 0.18793
7 1 0.00979693 0.429456 0.114867
8 2 0.0146029 0.448866 0.0930108
9 2 0.010917 0.397496 0.106165
10 1 0.570803 0.46419 0.406215
11 2 0.561631 0.464692 0.419486
12 2 0.574175 0.432819 0.40539
13 1 0.872514 0.481155 0.467114
14 2 0.873601 0.480851 0.43398
15 2 0.878932 0.502977 0.48043
16 1 0.278814 0.475257 0.758352
17 2 0.276623 0.496464 0.733693
18 2 0.287549 0.460357 0.751933
19 1 0.361409 0.110685 0.324968
20 2 0.370039 0.102125 0.33947
21 2 0.363276 0.129732 0.29833
22 1 0.138695 0.451377 0.405849
23 2 0.143004 0.424439 0.419236
24 2 0.145767 0.472515 0.395429
25 1 0.343885 0.754484 0.396716
26 2 0.346057 0.762013 0.365061
27 2 0.345458 0.721973 0.401882
28 1 0.571276 0.380546 0.319156
29 2 0.575445 0.410354 0.313726
30 2 0.574498 0.358927 0.296171
31 1 0.589092 0.356434 0.248248
32 2 0.595536 0.333806 0.236515
33 2 0.590122 0.384886 0.231224
34 1 0.145229 0.494594 0.590864
35 2 0.142335 0.526321 0.587485
36 2 0.143148 0.477834 0.562898
37 1 0.302163 0.453671 0.728859
38 2 0.308896 0.43797 0.747857
39 2 0.305516 0.45529 0.697497
40 1 0.324799 0.277554 0.437247
41 2 0.327529 0.246203 0.430506
42 2 0.318919 0.288935 0.412805
43 1 0.140649 0.294467 0.437774
44 2 0.137205 0.287873 0.407183
45 2 0.134028 0.283948 0.460431
46 1 0.54827 0.410773 0.460053
47 2 0.548192 0.387232 0.436455
48 2 0.546592 0.396767 0.48978
49 1 0.603491 0.549582 0.188121
50 2 0.605498 0.527954 0.163655
51 2 0.609544 0.57598 0.18544
52 1 0.821348 0.615129 0.582519
53 2 0.821213 0.590436 0.560132
54 2 0.814155 0.637124 0.575284
55 1 0.644084 0.97 0.575303
56 2 0.653405 0.981851 0.577608
57 2 0.643479 0.940901 0.591437
58 1 0.258745 0.502303 0.533567
59 2 0.253163 0.523064 0.551841
60 2 0.255792 0.470913 0.538941
61 1 0.266924 0.109708 0.930254
62 2 0.264319 0.109707 0.898072
63 2 0.26117 0.0881496 0.946939
64 1 0.330988 0.369984 0.552236
65 2 0.340721 0.374087 0.558693
66 2 0.329288 0.338327 0.543468
67 1 0.327247 0.55005 0.258941
68 2 0.329304 0.555559 0.291093
69 2 0.317348 0.547685 0.254863
70 1 0.87567 0.469719 0.370055
71 2 0.870481 0.441235 0.369303
72 2 0.879125 0.476533 0.339526
73 1 0.0041702 0.436974 0.211013
74 2 0.00148916 0.439536 0.179003
75 2 0.0137264 0.446182 0.214426
76 1 0.804547 0.54932 0.678872
77 2 0.801041 0.578936 0.669003
78 2 0.811647 0.553831 0.701908
79 1 0.289075 0.134579 0.876823
80 2 0.298481 0.126664 0.884918
81 2 0.282788 0.120845 0.898807
82 1 0.61072 0.4835 0.123776
83 2 0.619634 0.477715 0.109823
84 2 0.603825 0.487051 0.099897
85 1 0.24805 0.533162 0.618951
86 2 0.241937 0.508883 0.629266
87 2 0.256886 0.530209 0.634279
88 1 0.511669 0.961755 0.902325
89 2 0.508582 0.953792 0.933014
90 2 0.50809 0.939563 0.8805
91 1 0.313774 0.663052 0.101372
92 2 0.319492 0.639736 0.115663
93 2 0.30911 0.680701 0.12499
94 1 0.523355 0.822766 0.835459
95 2 0.528942 0.815056 0.862007
96 2 0.527129 0.807946 0.80838
97 1 0.594138 0.433812 0.184431
98 2 0.589886 0.455648 0.20525
99 2 0.600054 0.450059 0.163023
100 1 0.161739 0.407051 0.534214
101 2 0.163054 0.424504 0.562273
102 2 0.16799 0.381036 0.533939
103 1 0.301613 0.548524 0.653656
104 2 0.306956 0.521324 0.646302
105 2 0.306425 0.566392 0.676776
106 1 0.274209 0.516318 0.66947
107 2 0.28226 0.536014 0.667749
108 2 0.274981 0.492027 0.646788
109 1 0.232819 0.45163 0.63645
110 2 0.238092 0.433656 0.658339
111 2 0.223056 0.446242 0.641237
112 1 0.286976 0.635458 0.256869
113 2 0.279331 0.617124 0.245661
114 2 0.293496 0.615765 0.272709
115 1 0.54915 0.8086 0.871786
116 2 0.55398 0.79202 0.895807
117 2 0.553338 0.838595 0.867717
118 1 0.269763 0.577519 0.215763
119 2 0.273687 0.568162 0.186566
120 2 0.26101 0.562059 0.22033
121 1 0.99563 0.362635 0.250175
122 2 0.997927 0.386456 0.228151
123 2 0.987653 0.372052 0.267934
124 1 0.128931 0.280714 0.356987
125 2 0.131392 0.258945 0.333113
126 2 0.126196 0.309585 0.343041
127 1 0.799373 0.535055 0.592506
128 2 0.789656 0.527968 0.59592
129 2 0.803581 0.537712 0.622628
130 1 0.589268 0.520389 0.258219
131 2 0.596217 0.505256 0.276808
132 2 0.593679 0.536084 0.232752
133 1 0.182023 0.40884 0.703474
134 2 0.178033 0.378424 0.706492
135 2 0.188911 0.413334 0.727219
136 1 0.246361 0.411333 0.695661
137 2 0.254361 0.397299 0.681411
138 2 0.249336 0.431954 0.7199
139 1 0.408571 0.670434 0.0248062
140 2 0.39905 0.679676 0.0205009
141 2 0.408869 0.639295 0.0366591
142 1 0.291067 0.605359 0.0879159
143 2 0.300315 0.617903 0.089765
144 2 0.285108 0.626976 0.0721257
145 1 0.277941 0.415265 0.661972
146 2 0.278568 0.425681 0.693567
147 2 0.286484 0.400263 0.653312
148 1 0.328075 0.193744 0.418009
149 2 0.31883 0.181036 0.418212
150 2 0.334673 0.169456 0.411881
151 1 0.849882 0.467776 0.291168
152 2 0.854801 0.490631 0.273283
153 2 0.843297 0.482952 0.311145
154 1 0.351665 0.674124 0.427091
155 2 0.352527 0.640953 0.425509
156 2 0.351453 0.683705 0.45901
157 1 0.825588 0.992142 0.29498
158 2 0.823409 0.965902 0.275748
159 2 0.835056 0.989843 0.305456
160 1 0.789076 0.132206 0.131699
161 2 0.780707 0.116654 0.122156
162 2 0.788616 0.164273 0.12273
163 1 0.564102 0.459437 0.227572
164 2 0.564078 0.459654 0.260904
165 2 0.567455 0.429984 0.216679
166 1 0.342567 0.119107 0.394319
167 2 0.343001 0.0997443 0.421413
168 2 0.347683 0.104795 0.369512
169 1 0.0280142 0.403245 0.234696
170 2 0.0229515 0.384184 0.21318
171 2 0.0322527 0.383953 0.257919
172 1 0.127188 0.359884 0.318249
173 2 0.12718 0.363147 0.285075
174 2 0.133195 0.382912 0.331661
175 1 0.581553 0.464181 0.320584
176 2 0.576685 0.469099 0.349283
177 2 0.581081 0.491841 0.302049
178 1 0.341301 0.782738 0.482948
179 2 0.332707 0.787918 0.499183
180 2 0.33945 0.779172 0.450385
181 1 0.312358 0.465854 0.631413
182 2 0.322047 0.457603 0.631649
183 2 0.307375 0.445152 0.611246
184 1 0.819166 0.630577 0.134292
185 2 0.811048 0.630057 0.114834
186 2 0.823702 0.660153 0.13151
187 1 0.862931 0.325284 0.321342
188 2 0.857977 0.34435 0.299549
189 2 0.858798 0.294944 0.322231
190 1 0.333227 0.277864 0.52424
191 2 0.333239 0.276282 0.490944
192 2 0.340956 0.260437 0.536224
193 1 0.850178 0.38075 0.262674
194 2 0.85291 0.409938 0.275949
195 2 0.846047 0.38596 0.232768
196 1 0.214405 0.483224 0.797229
197 2 0.224067 0.482094 0.788705
198 2 0.212164 0.513727 0.808403
199 1 0.239844 0.524433 0.765435
200 2 0.237181 0.55032 0.746404
201 2 0.249495 0.517377 0.760292
202 1 0.18408 0.491355 0.665599
203 2 0.181828 0.492682 0.633149
204 2 0.182857 0.460184 0.676681
205 1 0.553053 0.372672 0.385642
206 2 0.55134 0.400901 0.368859
207 2 0.560943 0.357018 0.372431
208 1 0.771737 0.103708 0.0565774
209 2 0.768226 0.0727701 0.0606983
210 2 0.766412 0.119258 0.0330355
211 1 0.555976 0.901078 0.854824
212 2 0.547189 0.916877 0.852922
213 2 0.562729 0.921091 0.869101
214 1 0.300853 0.546136 0.258535
215 2 0.296282 0.531891 0.284536
216 2 0.2953 0.54192 0.231135
217 1 0.199654 0.404185 0.769598
218 2 0.201259 0.382368 0.794226
219 2 0.205533 0.430807 0.773889
220 1 0.816001 0.562059 0.511451
221 2 0.808901 0.556853 0.534341
222 2 0.815481 0.538346 0.488088
223 1 0.171123 0.502426 0.586673
224 2 0.172803 0.532745 0.574004
225 2 0.161499 0.499751 0.595324
226 1 0.274787 0.532249 0.13896
227 2 0.278142 0.501431 0.14498
228 2 0.28107 0.547815 0.11822
229 1 0.823945 0.617337 0.72861
230 2 0.828291 0.624637 0.699491
231 2 0.830376 0.623184 0.753459
232 1 0.505979 0.896512 0.846736
233 2 0.512963 0.87266 0.847284
234 2 0.498882 0.888443 0.824684
235 1 0.262665 0.563183 0.318244
236 2 0.266382 0.568582 0.287775
237 2 0.260948 0.592393 0.333248
238 1 0.150377 0.380968 0.450023
239 2 0.150047 0.349737 0.438424
240 2 0.153447 0.380683 0.481746
241 1 0.0332583 0.337164 0.29864
242 2 0.023299 0.335646 0.296051
243 2 0.0368593 0.306845 0.30555
244 1 0.266062 0.139125 0.837408
245 2 0.276007 0.135801 0.838474
246 2 0.263577 0.160064 0.812831
247 1 0.402694 0.769401 0.974528
248 2 0.409294 0.747206 0.986126
249 2 0.403933 0.798448 0.990348
250 1 0.834526 0.463957 0.366916
251 2 0.83055 0.433521 0.363887
252 2 0.844141 0.461298 0.375684
253 1 0.226607 0.596501 0.71275
254 2 0.228768 0.608359 0.682442
255 2 0.216926 0.588249 0.714069
256 1 0.531042 0.952655 0.837472
257 2 0.527125 0.966637 0.864771
258 2 0.524731 0.929679 0.825613
259 1 0.391551 0.117752 0.315909
260 2 0.39776 0.139855 0.301975
261 2 0.395437 0.0871584 0.313199
262 1 0.0268161 0.11822 0.729101
263 2 0.0215105 0.14393 0.717382
264 2 0.0208338 0.0917585 0.732744
265 1 0.783733 0.085953 0.210209
266 2 0.790075 0.0815693 0.235606
267 2 0.788204 0.103763 0.186297
268 1 0.587928 0.508224 0.0813848
269 2 0.584365 0.514816 0.111825
270 2 0.581382 0.518654 0.0584455
271 1 0.839479 0.629887 0.648783
272 2 0.832939 0.629814 0.623567
273 2 0.847868 0.614397 0.63934
274 1 0.860937 0.385415 0.470384
275 2 0.861854 0.366271 0.4975
276 2 0.864136 0.416234 0.477282
277 1 0.861215 0.394916 0.379053
278 2 0.863831 0.370668 0.357908
279 2 0.861678 0.383474 0.410323
280 1 0.364399 0.732636 0.511994
281 2 0.371515 0.75167 0.525637
282 2 0.357253 0.752084 0.49913
283 1 0.306278 0.395761 0.575935
284 2 0.31548 0.384903 0.568702
285 2 0.299641 0.380498 0.556221
286 1 0.0138287 0.320983 0.194392
287 2 0.00913682 0.335482 0.22001
288 2 0.00836062 0.295372 0.183303
289 1 0.3012 0.683128 0.183639
290 2 0.299454 0.713028 0.197174
291 2 0.29684 0.659529 0.202159
292 1 0.139827 0.463095 0.510029
293 2 0.134601 0.46159 0.481649
294 2 0.146882 0.439471 0.509898
295 1 0.201555 0.541533 0.712294
296 2 0.193496 0.529115 0.696956
297 2 0.20451 0.520508 0.736211
298 1 0.28852 0.507007 0.335163
299 2 0.279032 0.517279 0.332871
300 2 0.29111 0.504695 0.367277
ITEM: TIMESTEP
5300
ITEM: NUMBER OF ATOMS
300
ITEM: BOX BOUNDS pp ff pp
0.0000000000000000e+00 1.0000000000000000e+02
0.0000000000000000e+00 3.0000000000000000e+01
0.0000000000000000e+00 3.0000000000000000e+01
ITEM: ATOMS id type xs ys zs
1 1 0.38859 0.699081 0.0138541
2 2 0.394552 0.724709 0.00615288
3 2 0.383206 0.706672 0.0408991
4 1 0.578259 0.495715 0.193621
5 2 0.572485 0.470254 0.203235
6 2 0.57616 0.522539 0.21213
7 1 0.0122623 0.412801 0.120687
8 2 0.00793535 0.420426 0.0916193
9 2 0.0106871 0.380615 0.12759
10 1 0.564964 0.476528 0.411047
11 2 0.560166 0.462104 0.436491
12 2 0.568837 0.453005 0.391272
13 1 0.873741 0.476186 0.458833
14 2 0.875177 0.473863 0.425927
15 2 0.877609 0.504848 0.469939
16 1 0.272747 0.456619 0.759624
17 2 0.270347 0.473035 0.731738
18 2 0.282282 0.446718 0.75796
19 1 0.359941 0.10901 0.3088
20 2 0.369498 0.106957 0.318394
21 2 0.358641 0.136505 0.29046
22 1 0.138146 0.435923 0.403052
23 2 0.145243 0.423546 0.423011
24 2 0.139622 0.468636 0.398955
25 1 0.34436 0.726661 0.394045
26 2 0.344534 0.716156 0.362416
27 2 0.350248 0.707127 0.412602
28 1 0.572689 0.392786 0.310321
29 2 0.574518 0.425497 0.308354
30 2 0.578516 0.37654 0.288646
31 1 0.591792 0.366014 0.251144
32 2 0.599372 0.345056 0.245351
33 2 0.592753 0.392915 0.231722
34 1 0.148843 0.47993 0.596112
35 2 0.146542 0.507477 0.613242
36 2 0.143176 0.478274 0.568698
37 1 0.304144 0.44343 0.729967
38 2 0.309013 0.423445 0.751138
39 2 0.310071 0.450604 0.704097
40 1 0.321364 0.281825 0.449065
41 2 0.322343 0.250089 0.439406
42 2 0.315122 0.297651 0.428381
43 1 0.145157 0.30931 0.427162
44 2 0.139903 0.313561 0.399121
45 2 0.145051 0.277092 0.435706
46 1 0.550878 0.419221 0.474474
47 2 0.542879 0.408606 0.457521
48 2 0.551262 0.403771 0.503983
49 1 0.610001 0.52394 0.202753
50 2 0.608122 0.491244 0.20445
51 2 0.617302 0.52946 0.180656
52 1 0.822793 0.658944 0.577383
53 2 0.818485 0.647823 0.549433
54 2 0.822808 0.692277 0.577346
55 1 0.645395 0.969987 0.60123
56 2 0.639598 0.957169 0.625176
57 2 0.640827 0.9963 0.587561
58 1 0.261026 0.543363 0.567307
59 2 0.253924 0.551648 0.589262
60 2 0.256989 0.525279 0.542751
61 1 0.269784 0.100361 0.906216
62 2 0.265566 0.121786 0.8849
63 2 0.262946 0.0782957 0.916447
64 1 0.330178 0.368316 0.562849
65 2 0.338947 0.370625 0.546994
66 2 0.32643 0.337689 0.558715
67 1 0.33001 0.5371 0.23306
68 2 0.330335 0.546314 0.201044
69 2 0.324308 0.5585 0.250143
70 1 0.875887 0.469993 0.365698
71 2 0.866782 0.456214 0.365211
72 2 0.877987 0.482514 0.33561
73 1 0.00188308 0.438155 0.216575
74 2 0.0032042 0.460156 0.191924
75 2 0.010659 0.424208 0.224377
76 1 0.807368 0.569231 0.663156
77 2 0.799019 0.566421 0.681285
78 2 0.813608 0.590652 0.677977
79 1 0.286622 0.159171 0.858095
80 2 0.296312 0.16163 0.850244
81 2 0.284938 0.129892 0.873008
82 1 0.610847 0.450862 0.106901
83 2 0.613195 0.429323 0.0826944
84 2 0.605598 0.476152 0.0940403
85 1 0.2435 0.545838 0.637009
86 2 0.238433 0.518276 0.64515
87 2 0.252142 0.546572 0.653763
88 1 0.519722 0.933065 0.925091
89 2 0.519726 0.917333 0.954478
90 2 0.512 0.9224 0.906791
91 1 0.32354 0.655943 0.166584
92 2 0.330479 0.66661 0.188088
93 2 0.315149 0.673603 0.170687
94 1 0.516041 0.824628 0.803325
95 2 0.523745 0.82059 0.824189
96 2 0.51935 0.824001 0.771876
97 1 0.598174 0.441345 0.191607
98 2 0.590545 0.462893 0.191955
99 2 0.602529 0.441775 0.161604
100 1 0.166264 0.396767 0.537206
101 2 0.171306 0.425499 0.538971
102 2 0.160173 0.394137 0.563511
103 1 0.29058 0.552589 0.661381
104 2 0.292182 0.57338 0.63588
105 2 0.299287 0.545384 0.676108
106 1 0.266547 0.503613 0.678747
107 2 0.273905 0.525788 0.674515
108 2 0.263942 0.490875 0.649193
109 1 0.229938 0.446755 0.666256
110 2 0.234596 0.453075 0.695066
111 2 0.225097 0.417672 0.668477
112 1 0.290472 0.605981 0.204896
113 2 0.281076 0.596286 0.198878
114 2 0.294449 0.586647 0.228594
115 1 0.537671 0.805306 0.85474
116 2 0.539187 0.789138 0.883448
117 2 0.544785 0.828375 0.850657
118 1 0.261414 0.571024 0.198971
119 2 0.265765 0.55108 0.176544
120 2 0.251563 0.565295 0.199345
121 1 0.990139 0.353708 0.219406
122 2 0.992443 0.385935 0.215715
123 2 0.985344 0.349338 0.248329
124 1 0.128475 0.279005 0.35655
125 2 0.125005 0.266284 0.327992
126 2 0.126732 0.311821 0.357253
127 1 0.806491 0.504222 0.590702
128 2 0.813801 0.485181 0.603145
129 2 0.805125 0.53072 0.610406
130 1 0.588682 0.556871 0.253894
131 2 0.593957 0.572147 0.27774
132 2 0.594893 0.545569 0.230339
133 1 0.179133 0.416582 0.714524
134 2 0.176986 0.386179 0.702883
135 2 0.187618 0.415368 0.73212
136 1 0.246284 0.44616 0.75388
137 2 0.2562 0.448849 0.757247
138 2 0.242366 0.433806 0.78195
139 1 0.414699 0.672113 0.0170955
140 2 0.404865 0.676405 0.0128293
141 2 0.416955 0.639825 0.013631
142 1 0.296768 0.611967 0.110483
143 2 0.306103 0.620675 0.118674
144 2 0.290452 0.636179 0.119515
145 1 0.285742 0.423739 0.64126
146 2 0.286438 0.439844 0.670352
147 2 0.294027 0.429071 0.623374
148 1 0.321413 0.198141 0.39804
149 2 0.312621 0.194705 0.38254
150 2 0.327956 0.176244 0.38555
151 1 0.849339 0.460436 0.283651
152 2 0.849017 0.489074 0.266626
153 2 0.843663 0.463033 0.31097
154 1 0.356949 0.672428 0.445082
155 2 0.361944 0.644089 0.450639
156 2 0.357679 0.69217 0.47183
157 1 0.83027 0.994319 0.306918
158 2 0.831828 0.978869 0.335995
159 2 0.831064 0.972316 0.282018
160 1 0.794753 0.13303 0.135588
161 2 0.797417 0.165048 0.132924
162 2 0.785665 0.128763 0.122354
163 1 0.561231 0.427322 0.220974
164 2 0.562698 0.444194 0.249303
165 2 0.564122 0.395678 0.225084
166 1 0.341417 0.135603 0.382751
167 2 0.348564 0.148115 0.402423
168 2 0.345619 0.117882 0.358236
169 1 0.0258753 0.391521 0.217285
170 2 0.0317825 0.40161 0.192353
171 2 0.0265002 0.358397 0.22038
172 1 0.128499 0.374221 0.352896
173 2 0.13246 0.387993 0.325562
174 2 0.130011 0.394321 0.379005
175 1 0.570425 0.484334 0.292992
176 2 0.565132 0.493525 0.319737
177 2 0.577343 0.507486 0.2864
178 1 0.335094 0.779139 0.467104
179 2 0.328966 0.802736 0.4554
180 2 0.340117 0.765375 0.441779
181 1 0.319526 0.464522 0.655613
182 2 0.325518 0.48932 0.645753
183 2 0.318371 0.442765 0.630654
184 1 0.813735 0.619312 0.163401
185 2 0.809983 0.647769 0.151362
186 2 0.812939 0.595381 0.140349
187 1 0.870145 0.33642 0.324341
188 2 0.866278 0.348216 0.295955
189 2 0.869146 0.303262 0.325121
190 1 0.316911 0.289099 0.537501
191 2 0.319438 0.291167 0.505316
192 2 0.309937 0.265532 0.541409
193 1 0.858507 0.376721 0.241947
194 2 0.858954 0.405091 0.259384
195 2 0.85339 0.381879 0.213774
196 1 0.217074 0.479732 0.767621
197 2 0.22382 0.499173 0.782699
198 2 0.212275 0.497313 0.744251
199 1 0.239321 0.537227 0.795143
200 2 0.238587 0.562123 0.773113
201 2 0.247717 0.520045 0.78943
202 1 0.186258 0.479931 0.652958
203 2 0.18207 0.476354 0.6229
204 2 0.182408 0.457412 0.673918
205 1 0.552162 0.360787 0.365378
206 2 0.550254 0.329138 0.357071
207 2 0.55899 0.373386 0.344538
208 1 0.769041 0.136593 0.101223
209 2 0.76554 0.106835 0.110674
210 2 0.762194 0.152032 0.0824666
211 1 0.553474 0.881164 0.859541
212 2 0.546986 0.905337 0.851852
213 2 0.562218 0.894723 0.868362
214 1 0.30238 0.537432 0.261224
215 2 0.295855 0.522326 0.28147
216 2 0.310179 0.517281 0.255827
217 1 0.207474 0.399609 0.738891
218 2 0.214593 0.376446 0.735492
219 2 0.211604 0.428203 0.749088
220 1 0.811365 0.580209 0.51331
221 2 0.812403 0.552769 0.531916
222 2 0.804048 0.57555 0.491071
223 1 0.176548 0.474562 0.572164
224 2 0.182281 0.501695 0.569041
225 2 0.167581 0.483331 0.58403
226 1 0.283897 0.538616 0.142412
227 2 0.291444 0.532473 0.1634
228 2 0.28723 0.556787 0.11677
229 1 0.824051 0.603861 0.720275
230 2 0.829567 0.618251 0.696484
231 2 0.827653 0.612276 0.75021
232 1 0.504027 0.886285 0.854947
233 2 0.50906 0.861847 0.839699
234 2 0.494376 0.884717 0.846357
235 1 0.264858 0.556976 0.296806
236 2 0.264802 0.564896 0.264428
237 2 0.264003 0.584728 0.315049
238 1 0.154687 0.389803 0.454733
239 2 0.152278 0.359192 0.444267
240 2 0.161196 0.387591 0.479943
241 1 0.0283236 0.322518 0.306244
242 2 0.0187935 0.313788 0.311318
243 2 0.0287409 0.354522 0.297029
244 1 0.261739 0.164553 0.839887
245 2 0.271382 0.172315 0.844084
246 2 0.258991 0.171669 0.808636
247 1 0.403455 0.77849 0.997273
248 2 0.411246 0.759857 0.987817
249 2 0.406118 0.79765 0.0230639
250 1 0.836106 0.453669 0.357286
251 2 0.833515 0.475738 0.380727
252 2 0.842211 0.430815 0.370502
253 1 0.226491 0.581873 0.702284
254 2 0.232765 0.584153 0.676428
255 2 0.219465 0.559099 0.695654
256 1 0.534262 0.939863 0.845076
257 2 0.529199 0.93724 0.873701
258 2 0.529471 0.960802 0.824641
259 1 0.38627 0.138898 0.324476
260 2 0.391741 0.138696 0.352378
261 2 0.390779 0.120311 0.301245
262 1 0.02734 0.111218 0.735282
263 2 0.0229296 0.133502 0.715322
264 2 0.0253363 0.11867 0.767077
265 1 0.780541 0.0577402 0.185559
266 2 0.790101 0.0517202 0.193258
267 2 0.77973 0.0883097 0.172547
268 1 0.589204 0.510488 0.0958279
269 2 0.585941 0.517913 0.12645
270 2 0.587021 0.535539 0.0750763
271 1 0.836978 0.624875 0.645899
272 2 0.83297 0.643682 0.621838
273 2 0.842064 0.599669 0.632176
274 1 0.861713 0.381891 0.471651
275 2 0.867167 0.365452 0.494242
276 2 0.862979 0.414703 0.475739
277 1 0.85666 0.401026 0.386016
278 2 0.862253 0.380396 0.367635
279 2 0.85647 0.390292 0.417568
280 1 0.355462 0.741079 0.512934
281 2 0.362283 0.761752 0.52585
282 2 0.348164 0.75884 0.498657
283 1 0.309772 0.429389 0.579282
284 2 0.317581 0.409398 0.573468
285 2 0.306342 0.441435 0.55038
286 1 0.0105811 0.317353 0.158182
287 2 0.00396461 0.323365 0.182442
288 2 0.0151644 0.288305 0.164004
289 1 0.297479 0.691288 0.176645
290 2 0.292836 0.715262 0.193875
291 2 0.294712 0.661472 0.188352
292 1 0.138667 0.457246 0.505152
293 2 0.131374 0.45162 0.483052
294 2 0.14661 0.438468 0.497566
295 1 0.209246 0.516601 0.689315
296 2 0.200649 0.511731 0.673003
297 2 0.215655 0.492144 0.681789
298 1 0.282797 0.491205 0.316274
299 2 0.279392 0.521326 0.307612
300 2 0.275307 0.469153 0.315061
ITEM: TIMESTEP
5400
ITEM: NUMBER OF ATOMS
300
ITEM: BOX BOUNDS pp ff pp
0.0000000000000000e+00 1.0000000000000000e+02
0.0000000000000000e+00 3.0000000000000000e+01
0.0000000000000000e+00 3.0000000000000000e+01
ITEM: ATOMS id type xs ys zs
1 1 0.394063 0.704492 0.0353819
2 2 0.399648 0.732112 0.0341256
3 2 0.384382 0.712845 0.0355974
4 1 0.581508 0.48955 0.168635
5 2 0.572899 0.473732 0.162512
6 2 0.581284 0.502416 0.199376
7 1 0.0106098 0.413583 0.120613
8 2 0.0173514 0.415053 0.0960371
9 2 0.00938941 0.381878 0.130065
10 1 0.5596 0.472385 0.381453
11 2 0.552698 0.460598 0.402496
12 2 0.567779 0.453266 0.382953
13 1 0.878181 0.464329 0.465455
14 2 0.876836 0.463769 0.432429
15 2 0.878388 0.49593 0.476039
16 1 0.280935 0.441071 0.750336
17 2 0.278996 0.45778 0.722227
18 2 0.290685 0.443338 0.757384
19 1 0.358506 0.119268 0.296688
20 2 0.367558 0.120442 0.310803
21 2 0.357539 0.144571 0.275229
22 1 0.140503 0.456625 0.409533
23 2 0.147522 0.434594 0.41838
24 2 0.143821 0.487524 0.415362
25 1 0.344883 0.715255 0.388718
26 2 0.349777 0.718929 0.359883
27 2 0.349419 0.691955 0.407146
28 1 0.576332 0.415014 0.325239
29 2 0.572556 0.43775 0.304365
30 2 0.583928 0.399164 0.31045
31 1 0.594632 0.384364 0.262689
32 2 0.595696 0.352054 0.2553
33 2 0.598817 0.402842 0.238709
34 1 0.149281 0.480684 0.569518
35 2 0.142637 0.498323 0.587111
36 2 0.14448 0.462163 0.546891
37 1 0.307099 0.463802 0.748155
38 2 0.312083 0.4865 0.766041
39 2 0.312545 0.455147 0.721572
40 1 0.315304 0.282109 0.450121
41 2 0.316502 0.250346 0.440832
42 2 0.316194 0.301931 0.423486
43 1 0.152528 0.301154 0.401842
44 2 0.14296 0.29149 0.402577
45 2 0.156571 0.292769 0.37253
46 1 0.551886 0.410395 0.457421
47 2 0.555175 0.386524 0.436899
48 2 0.55736 0.410309 0.485316
49 1 0.608496 0.499868 0.265393
50 2 0.607792 0.474924 0.243407
51 2 0.610603 0.487486 0.295535
52 1 0.824616 0.679435 0.56639
53 2 0.822634 0.657093 0.542551
54 2 0.822585 0.710059 0.555102
55 1 0.645497 0.97047 0.625951
56 2 0.647127 0.999636 0.610755
57 2 0.635655 0.964902 0.627909
58 1 0.267954 0.581535 0.581256
59 2 0.259045 0.568621 0.589165
60 2 0.267578 0.594236 0.550462
61 1 0.270613 0.102466 0.867471
62 2 0.26591 0.131691 0.864108
63 2 0.263876 0.0782876 0.872173
64 1 0.320883 0.38606 0.582398
65 2 0.33013 0.396154 0.574707
66 2 0.319059 0.356753 0.567725
67 1 0.326551 0.545998 0.209477
68 2 0.321673 0.537015 0.1818
69 2 0.32954 0.577688 0.206719
70 1 0.873749 0.458734 0.372496
71 2 0.868506 0.430361 0.373288
72 2 0.8757 0.466898 0.340839
73 1 0.00183567 0.413418 0.215499
74 2 0.00252375 0.414666 0.182268
75 2 0.0100388 0.426842 0.229035
76 1 0.806199 0.570762 0.636913
77 2 0.799379 0.554808 0.655343
78 2 0.81146 0.591415 0.656329
79 1 0.287092 0.176387 0.838211
80 2 0.296359 0.188743 0.836193
81 2 0.287272 0.147668 0.855121
82 1 0.606431 0.419173 0.0894859
83 2 0.601338 0.392157 0.0798382
84 2 0.601123 0.446524 0.0824115
85 1 0.248433 0.512376 0.667589
86 2 0.243104 0.485296 0.659699
87 2 0.258069 0.504055 0.670775
88 1 0.521381 0.90148 0.898106
89 2 0.526265 0.873172 0.904794
90 2 0.512262 0.894327 0.886443
91 1 0.333597 0.628482 0.204091
92 2 0.341539 0.642583 0.21863
93 2 0.326272 0.650997 0.20124
94 1 0.508594 0.839095 0.797952
95 2 0.517081 0.821518 0.79929
96 2 0.509658 0.864233 0.776352
97 1 0.6038 0.438408 0.196264
98 2 0.596233 0.45816 0.187058
99 2 0.608981 0.429145 0.169301
100 1 0.169414 0.37999 0.526637
101 2 0.17111 0.410664 0.538396
102 2 0.173248 0.357501 0.547663
103 1 0.284807 0.570726 0.642051
104 2 0.279091 0.571322 0.614706
105 2 0.285845 0.601704 0.653859
106 1 0.275348 0.486534 0.671354
107 2 0.280443 0.51391 0.662794
108 2 0.279199 0.460115 0.655594
109 1 0.225342 0.45573 0.67609
110 2 0.227789 0.459041 0.708241
111 2 0.215399 0.453675 0.673189
112 1 0.283373 0.633826 0.236795
113 2 0.277305 0.619934 0.214231
114 2 0.287857 0.609895 0.254543
115 1 0.531223 0.806521 0.831527
116 2 0.532407 0.777643 0.847701
117 2 0.539351 0.825458 0.835831
118 1 0.266801 0.565517 0.180353
119 2 0.272864 0.560373 0.154351
120 2 0.257439 0.569885 0.169475
121 1 0.982906 0.346946 0.187647
122 2 0.985036 0.375192 0.203861
123 2 0.978067 0.326148 0.208101
124 1 0.125848 0.289873 0.368755
125 2 0.117867 0.270956 0.375502
126 2 0.12332 0.313453 0.346752
127 1 0.812365 0.489505 0.567869
128 2 0.820553 0.470541 0.565309
129 2 0.81204 0.503385 0.598156
130 1 0.583743 0.540885 0.246892
131 2 0.585025 0.567607 0.227431
132 2 0.592653 0.52776 0.254425
133 1 0.178103 0.41718 0.716383
134 2 0.173387 0.392931 0.699769
135 2 0.18577 0.40422 0.73341
136 1 0.256563 0.479657 0.793772
137 2 0.266344 0.486585 0.793706
138 2 0.255073 0.449449 0.780583
139 1 0.415574 0.650138 0.0205947
140 2 0.407042 0.667383 0.0228165
141 2 0.417402 0.634969 0.0496445
142 1 0.305384 0.593928 0.124886
143 2 0.302625 0.624586 0.115576
144 2 0.313454 0.595866 0.144479
145 1 0.291067 0.405149 0.614577
146 2 0.295726 0.384752 0.593272
147 2 0.297836 0.423636 0.630709
148 1 0.318383 0.193053 0.404558
149 2 0.311083 0.189584 0.382039
150 2 0.325145 0.168858 0.400376
151 1 0.848063 0.457923 0.255889
152 2 0.839889 0.464889 0.237996
153 2 0.845576 0.454884 0.288031
154 1 0.359015 0.671769 0.465584
155 2 0.368312 0.6756 0.477249
156 2 0.352562 0.687051 0.485955
157 1 0.834397 0.991822 0.316643
158 2 0.843003 0.991933 0.333619
159 2 0.826737 0.989984 0.337989
160 1 0.7997 0.133279 0.154116
161 2 0.800701 0.165153 0.144946
162 2 0.793065 0.131122 0.178962
163 1 0.559801 0.443818 0.219684
164 2 0.560709 0.46589 0.244479
165 2 0.551474 0.425896 0.224089
166 1 0.33774 0.129683 0.364128
167 2 0.342793 0.138663 0.391455
168 2 0.342459 0.104372 0.349195
169 1 0.0306546 0.366528 0.211188
170 2 0.0394811 0.378476 0.201051
171 2 0.0257754 0.353507 0.185168
172 1 0.120481 0.368872 0.332258
173 2 0.129484 0.37587 0.34497
174 2 0.114105 0.393425 0.339781
175 1 0.560509 0.496951 0.293339
176 2 0.559366 0.486767 0.324849
177 2 0.564529 0.527471 0.293069
178 1 0.334951 0.777971 0.443258
179 2 0.328122 0.791581 0.423065
180 2 0.340953 0.758004 0.425589
181 1 0.320636 0.442456 0.673666
182 2 0.322842 0.412121 0.661967
183 2 0.317734 0.462033 0.648481
184 1 0.805513 0.60475 0.193442
185 2 0.813449 0.614334 0.175572
186 2 0.799585 0.631015 0.199003
187 1 0.869411 0.362596 0.328137
188 2 0.867773 0.372293 0.296716
189 2 0.872982 0.331461 0.328248
190 1 0.313728 0.305781 0.542418
191 2 0.314184 0.294379 0.511133
192 2 0.313584 0.280054 0.563608
193 1 0.862026 0.380821 0.243467
194 2 0.85746 0.41047 0.244079
195 2 0.86288 0.370443 0.211918
196 1 0.211102 0.478765 0.756938
197 2 0.218241 0.486247 0.779045
198 2 0.210708 0.502496 0.733566
199 1 0.232538 0.510983 0.80979
200 2 0.231647 0.543822 0.814681
201 2 0.242214 0.503035 0.807013
202 1 0.190893 0.47362 0.660418
203 2 0.185427 0.466532 0.633419
204 2 0.18719 0.457316 0.686743
205 1 0.559757 0.367465 0.38163
206 2 0.555737 0.346996 0.358989
207 2 0.567033 0.385388 0.367431
208 1 0.767933 0.152973 0.158034
209 2 0.770473 0.127441 0.138348
210 2 0.758589 0.162557 0.151023
211 1 0.552051 0.855035 0.852522
212 2 0.548844 0.886202 0.857566
213 2 0.562014 0.855007 0.849671
214 1 0.302011 0.559264 0.265756
215 2 0.299432 0.528373 0.274863
216 2 0.311217 0.558876 0.252746
217 1 0.201897 0.392692 0.76213
218 2 0.208278 0.374325 0.780056
219 2 0.206022 0.422329 0.75552
220 1 0.810941 0.60022 0.543725
221 2 0.806277 0.608874 0.571912
222 2 0.809779 0.567529 0.538487
223 1 0.17527 0.465166 0.573491
224 2 0.178467 0.482122 0.546843
225 2 0.16546 0.470206 0.57752
226 1 0.284312 0.535167 0.117354
227 2 0.286389 0.511708 0.140001
228 2 0.292551 0.552982 0.111063
229 1 0.824832 0.606286 0.70273
230 2 0.829735 0.610941 0.674055
231 2 0.83076 0.590334 0.72432
232 1 0.496035 0.862829 0.878413
233 2 0.499113 0.848028 0.850364
234 2 0.486129 0.867246 0.877205
235 1 0.260724 0.546357 0.281866
236 2 0.2629 0.550693 0.249622
237 2 0.261807 0.575273 0.298052
238 1 0.149978 0.371059 0.46386
239 2 0.15006 0.341795 0.447901
240 2 0.156876 0.370768 0.487994
241 1 0.0244688 0.321829 0.300443
242 2 0.0194084 0.340592 0.322227
243 2 0.0261002 0.339315 0.272591
244 1 0.261424 0.187771 0.84534
245 2 0.271134 0.184806 0.837953
246 2 0.257363 0.211745 0.826547
247 1 0.398193 0.791214 0.0151227
248 2 0.406536 0.807766 0.00713498
249 2 0.39053 0.812566 0.0168078
250 1 0.839183 0.453564 0.349892
251 2 0.835218 0.476626 0.370006
252 2 0.84289 0.428608 0.368211
253 1 0.234035 0.581113 0.706951
254 2 0.241401 0.56282 0.693771
255 2 0.225438 0.574059 0.691457
256 1 0.546957 0.943342 0.875103
257 2 0.537949 0.938045 0.888569
258 2 0.550241 0.973574 0.883898
259 1 0.379701 0.160944 0.339828
260 2 0.376422 0.18662 0.358058
261 2 0.387723 0.170356 0.322289
262 1 0.0274491 0.106455 0.743843
263 2 0.0252754 0.11262 0.711896
264 2 0.0343423 0.128167 0.754414
265 1 0.779308 0.0634329 0.134731
266 2 0.777812 0.0306589 0.138211
267 2 0.787917 0.0686533 0.118598
268 1 0.594401 0.50416 0.0827123
269 2 0.58851 0.501487 0.109516
270 2 0.598526 0.534517 0.0819948
271 1 0.835084 0.620631 0.623518
272 2 0.831467 0.650067 0.613556
273 2 0.831141 0.596346 0.604847
274 1 0.870749 0.378831 0.480155
275 2 0.878397 0.358666 0.487536
276 2 0.874145 0.409855 0.475635
277 1 0.852656 0.391177 0.394888
278 2 0.857692 0.373856 0.371881
279 2 0.855208 0.380439 0.425276
280 1 0.344518 0.726511 0.512131
281 2 0.345657 0.745532 0.539241
282 2 0.338931 0.742699 0.48972
283 1 0.310425 0.479733 0.599024
284 2 0.309476 0.454879 0.577038
285 2 0.305658 0.506731 0.587635
286 1 0.00804637 0.321101 0.147767
287 2 0.99964 0.335962 0.158021
288 2 0.00585734 0.291118 0.135163
289 1 0.305434 0.665525 0.190738
290 2 0.300588 0.684659 0.168736
291 2 0.29925 0.657403 0.215641
292 1 0.136 0.442077 0.503203
293 2 0.133604 0.461792 0.477539
294 2 0.140295 0.414226 0.491783
295 1 0.208963 0.539909 0.675097
296 2 0.200078 0.525388 0.6703
297 2 0.215586 0.527556 0.653391
298 1 0.281653 0.473634 0.283974
299 2 0.275019 0.497546 0.276881
300 2 0.277127 0.449224 0.300934
ITEM: TIMESTEP
5500
ITEM: NUMBER OF ATOMS
300
ITEM: BOX BOUNDS pp ff pp
0.0000000000000000e+00 1.0000000000000000e+02
0.0000000000000000e+00 3.0000000000000000e+01
0.0000000000000000e+00 3.0000000000000000e+01
ITEM: ATOMS id type xs ys zs
1 1 0.398144 0.714783 0.0565908
2 2 0.395828 0.746578 0.0502201
3 2 0.391235 0.701584 0.0767542
4 1 0.579268 0.503108 0.171201
5 2 0.570524 0.487272 0.174497
6 2 0.579267 0.530465 0.190246
7 1 0.0112983 0.404432 0.11906
8 2 0.0101331 0.423052 0.0916867
9 2 0.00755575 0.373997 0.113656
10 1 0.55395 0.499427 0.369768
11 2 0.546677 0.518809 0.381921
12 2 0.556803 0.477593 0.393089
13 1 0.889615 0.443255 0.44495
14 2 0.885152 0.451796 0.416371
15 2 0.892751 0.470724 0.460676
16 1 0.283465 0.466024 0.749106
17 2 0.279108 0.456881 0.72053
18 2 0.293349 0.461522 0.746762
19 1 0.354132 0.136241 0.319186
20 2 0.362122 0.154334 0.327822
21 2 0.353199 0.13619 0.285998
22 1 0.142311 0.413336 0.393434
23 2 0.147447 0.401055 0.419264
24 2 0.143446 0.446435 0.392326
25 1 0.346971 0.697306 0.397473
26 2 0.350486 0.681669 0.370468
27 2 0.353676 0.695193 0.422111
28 1 0.575421 0.407652 0.304249
29 2 0.569606 0.433213 0.295189
30 2 0.579208 0.393094 0.277049
31 1 0.600514 0.371729 0.261185
32 2 0.607928 0.35034 0.267729
33 2 0.603268 0.392079 0.236432
34 1 0.152728 0.468622 0.567529
35 2 0.146589 0.48858 0.584676
36 2 0.147845 0.455821 0.541406
37 1 0.312013 0.452035 0.742492
38 2 0.317319 0.432032 0.762446
39 2 0.316493 0.4541 0.712763
40 1 0.312004 0.298632 0.448034
41 2 0.31414 0.266121 0.446161
42 2 0.309127 0.30965 0.418071
43 1 0.153634 0.300169 0.3994
44 2 0.144145 0.293742 0.407723
45 2 0.156573 0.278882 0.375692
46 1 0.556156 0.423247 0.431036
47 2 0.562892 0.398868 0.427464
48 2 0.548366 0.417468 0.410951
49 1 0.597134 0.478639 0.294419
50 2 0.600674 0.454513 0.274676
51 2 0.590963 0.465398 0.317061
52 1 0.829779 0.672427 0.533203
53 2 0.825674 0.642061 0.531846
54 2 0.822726 0.694886 0.540551
55 1 0.645274 0.953696 0.649672
56 2 0.653288 0.947889 0.630598
57 2 0.638831 0.928374 0.646723
58 1 0.266265 0.636276 0.570336
59 2 0.256724 0.63451 0.580161
60 2 0.267017 0.625646 0.538843
61 1 0.267918 0.119326 0.828262
62 2 0.264972 0.148469 0.841122
63 2 0.26252 0.0946558 0.841632
64 1 0.316343 0.395248 0.581586
65 2 0.322817 0.41353 0.563946
66 2 0.316061 0.364266 0.569324
67 1 0.322546 0.513641 0.209089
68 2 0.329015 0.488472 0.205533
69 2 0.327572 0.541947 0.214491
70 1 0.874367 0.457148 0.376599
71 2 0.867097 0.470987 0.358369
72 2 0.873981 0.423989 0.373455
73 1 0.997963 0.397871 0.212954
74 2 0.998883 0.421263 0.189406
75 2 0.00675179 0.393632 0.228283
76 1 0.798702 0.554961 0.63255
77 2 0.791489 0.559939 0.655095
78 2 0.807178 0.569135 0.643125
79 1 0.289966 0.173419 0.816098
80 2 0.2971 0.161304 0.796128
81 2 0.282817 0.150473 0.820186
82 1 0.610424 0.401327 0.118279
83 2 0.607081 0.369959 0.116556
84 2 0.603012 0.422334 0.110572
85 1 0.248774 0.482275 0.645632
86 2 0.240671 0.469047 0.660006
87 2 0.256992 0.468254 0.658441
88 1 0.522441 0.88287 0.87915
89 2 0.523867 0.860974 0.85447
90 2 0.512794 0.882919 0.88792
91 1 0.333938 0.606216 0.215156
92 2 0.342765 0.61943 0.223566
93 2 0.327049 0.630326 0.213583
94 1 0.499882 0.83942 0.805912
95 2 0.508631 0.825526 0.797694
96 2 0.498633 0.867587 0.788579
97 1 0.604624 0.438562 0.200532
98 2 0.595716 0.447329 0.188181
99 2 0.611265 0.436335 0.175712
100 1 0.175677 0.372839 0.526676
101 2 0.176643 0.40546 0.532729
102 2 0.183539 0.356559 0.539299
103 1 0.288725 0.541024 0.681638
104 2 0.284001 0.567873 0.669711
105 2 0.292493 0.547961 0.711726
106 1 0.27561 0.464673 0.662961
107 2 0.279213 0.495661 0.665526
108 2 0.278603 0.451241 0.634131
109 1 0.224745 0.447039 0.674369
110 2 0.220113 0.431203 0.699308
111 2 0.218187 0.453391 0.650019
112 1 0.285402 0.632666 0.232619
113 2 0.278284 0.621171 0.212222
114 2 0.290981 0.607225 0.24348
115 1 0.527856 0.816871 0.799428
116 2 0.530339 0.78543 0.792072
117 2 0.535996 0.833454 0.809421
118 1 0.26781 0.598187 0.159939
119 2 0.270445 0.567102 0.151713
120 2 0.266043 0.615768 0.132238
121 1 0.980336 0.33739 0.175122
122 2 0.987735 0.353404 0.190818
123 2 0.971529 0.349137 0.185672
124 1 0.124027 0.299166 0.373811
125 2 0.115876 0.290799 0.391216
126 2 0.123505 0.331343 0.365286
127 1 0.813181 0.510126 0.55893
128 2 0.808134 0.48485 0.545173
129 2 0.80886 0.518677 0.58775
130 1 0.582237 0.549792 0.25552
131 2 0.586 0.570852 0.278109
132 2 0.588474 0.524034 0.251597
133 1 0.178991 0.421226 0.698115
134 2 0.170401 0.404231 0.69654
135 2 0.181841 0.424061 0.72994
136 1 0.262237 0.495525 0.791095
137 2 0.266653 0.473177 0.771221
138 2 0.268634 0.504956 0.814918
139 1 0.413325 0.636525 0.0318778
140 2 0.408842 0.665261 0.0397595
141 2 0.421682 0.642835 0.0146947
142 1 0.308862 0.564766 0.138292
143 2 0.306362 0.5955 0.148146
144 2 0.314263 0.549958 0.162119
145 1 0.289513 0.419991 0.591179
146 2 0.286551 0.38902 0.583797
147 2 0.299422 0.420355 0.595654
148 1 0.320184 0.204067 0.443777
149 2 0.32305 0.178714 0.463197
150 2 0.323084 0.198284 0.412405
151 1 0.842706 0.459601 0.262989
152 2 0.835459 0.481267 0.25536
153 2 0.842781 0.454377 0.295909
154 1 0.359704 0.690862 0.484325
155 2 0.36562 0.709014 0.504142
156 2 0.3511 0.684445 0.500054
157 1 0.838176 0.986503 0.329418
158 2 0.844455 0.96932 0.309984
159 2 0.838416 0.974066 0.360334
160 1 0.800543 0.133962 0.170607
161 2 0.80125 0.115587 0.198318
162 2 0.792719 0.154569 0.173126
163 1 0.553674 0.47102 0.197915
164 2 0.555207 0.478973 0.22988
165 2 0.547948 0.443748 0.196165
166 1 0.32655 0.167712 0.35819
167 2 0.321887 0.172024 0.329021
168 2 0.33538 0.152947 0.353019
169 1 0.0251778 0.356267 0.211144
170 2 0.0344228 0.361082 0.222902
171 2 0.025075 0.361807 0.178276
172 1 0.118491 0.38768 0.339895
173 2 0.125111 0.40502 0.357884
174 2 0.121232 0.387951 0.30784
175 1 0.564147 0.485717 0.281637
176 2 0.562277 0.4941 0.313291
177 2 0.570115 0.5086 0.267794
178 1 0.333388 0.762654 0.456618
179 2 0.331766 0.790404 0.43896
180 2 0.335859 0.737793 0.435999
181 1 0.328446 0.436081 0.669775
182 2 0.324911 0.407803 0.656637
183 2 0.330188 0.458078 0.645413
184 1 0.797882 0.591126 0.22722
185 2 0.797215 0.624385 0.227372
186 2 0.789734 0.57824 0.212822
187 1 0.870685 0.364285 0.324139
188 2 0.865063 0.370668 0.297323
189 2 0.875255 0.334885 0.320304
190 1 0.317231 0.315776 0.539949
191 2 0.314756 0.315546 0.507654
192 2 0.325239 0.296392 0.544735
193 1 0.859415 0.391303 0.244874
194 2 0.852257 0.414362 0.248053
195 2 0.860732 0.384231 0.212597
196 1 0.211006 0.46729 0.762724
197 2 0.220029 0.469923 0.776855
198 2 0.208806 0.495664 0.746843
199 1 0.236066 0.498584 0.786096
200 2 0.233869 0.531048 0.784214
201 2 0.245991 0.494595 0.785286
202 1 0.191632 0.48309 0.647515
203 2 0.190443 0.474236 0.615624
204 2 0.187173 0.46067 0.667199
205 1 0.573034 0.362649 0.378189
206 2 0.570531 0.332687 0.366198
207 2 0.57604 0.382239 0.353151
208 1 0.77354 0.137857 0.197474
209 2 0.775485 0.136719 0.164797
210 2 0.764591 0.124201 0.203365
211 1 0.552723 0.842915 0.838934
212 2 0.552668 0.856953 0.869167
213 2 0.562167 0.838933 0.828725
214 1 0.300205 0.55244 0.252279
215 2 0.292676 0.53447 0.264866
216 2 0.30868 0.534836 0.254051
217 1 0.189527 0.416497 0.780775
218 2 0.191738 0.391818 0.801936
219 2 0.197084 0.438315 0.779947
220 1 0.815762 0.596243 0.538892
221 2 0.80712 0.603504 0.523776
222 2 0.817516 0.563511 0.536528
223 1 0.180479 0.468928 0.562468
224 2 0.183642 0.483808 0.534565
225 2 0.170527 0.471451 0.564551
226 1 0.284944 0.525525 0.118436
227 2 0.285 0.498073 0.137342
228 2 0.293287 0.543038 0.123998
229 1 0.819116 0.603552 0.683781
230 2 0.825823 0.613629 0.661204
231 2 0.820599 0.61993 0.712389
232 1 0.496152 0.871109 0.889905
233 2 0.497521 0.852098 0.862908
234 2 0.488126 0.890489 0.885452
235 1 0.264856 0.542804 0.248862
236 2 0.260392 0.560232 0.224656
237 2 0.263731 0.558707 0.277916
238 1 0.15395 0.376335 0.464876
239 2 0.15318 0.349874 0.444767
240 2 0.161719 0.372188 0.485447
241 1 0.0241987 0.315185 0.299155
242 2 0.0217114 0.283739 0.291841
243 2 0.0206235 0.335575 0.275631
244 1 0.265909 0.204401 0.858324
245 2 0.275648 0.200519 0.851823
246 2 0.262155 0.228179 0.838597
247 1 0.397591 0.797621 0.0286292
248 2 0.401361 0.826899 0.0384304
249 2 0.398701 0.794422 0.995657
250 1 0.841502 0.446927 0.351636
251 2 0.83418 0.454397 0.373072
252 2 0.847018 0.422011 0.363976
253 1 0.23385 0.56991 0.705543
254 2 0.237111 0.545607 0.685484
255 2 0.22417 0.565081 0.712375
256 1 0.54802 0.893866 0.912688
257 2 0.538774 0.888823 0.901027
258 2 0.547736 0.916466 0.937172
259 1 0.375798 0.182406 0.335824
260 2 0.384649 0.167569 0.34037
261 2 0.376556 0.214743 0.343508
262 1 0.0280575 0.104429 0.750497
263 2 0.0252025 0.0767442 0.734556
264 2 0.037889 0.108915 0.746374
265 1 0.779317 0.111484 0.107402
266 2 0.789025 0.113326 0.0996141
267 2 0.775575 0.082635 0.0963016
268 1 0.59227 0.463951 0.109213
269 2 0.586775 0.479776 0.13213
270 2 0.598571 0.485539 0.0949317
271 1 0.839431 0.639611 0.621457
272 2 0.844237 0.66702 0.611301
273 2 0.841035 0.614916 0.599716
274 1 0.873059 0.389764 0.484648
275 2 0.868203 0.40158 0.511284
276 2 0.879961 0.411843 0.474929
277 1 0.855847 0.381483 0.394556
278 2 0.861313 0.370409 0.368935
279 2 0.861274 0.380004 0.422515
280 1 0.335806 0.706686 0.530801
281 2 0.33579 0.718043 0.562139
282 2 0.335213 0.732386 0.509666
283 1 0.309387 0.498673 0.617269
284 2 0.303155 0.496338 0.591304
285 2 0.304091 0.501577 0.645395
286 1 0.00294947 0.319163 0.100024
287 2 0.994272 0.329471 0.112991
288 2 0.00176934 0.288814 0.0868116
289 1 0.312429 0.669576 0.217417
290 2 0.313151 0.702822 0.217291
291 2 0.30329 0.660681 0.227614
292 1 0.132634 0.436409 0.508125
293 2 0.124364 0.419472 0.516147
294 2 0.137937 0.41897 0.485886
295 1 0.204548 0.55286 0.707322
296 2 0.200056 0.529851 0.688414
297 2 0.203302 0.582946 0.693585
298 1 0.27859 0.451657 0.273962
299 2 0.271148 0.469629 0.260824
300 2 0.27481 0.42886 0.294762
ITEM: TIMESTEP
5600
ITEM: NUMBER OF ATOMS
300
ITEM: BOX BOUNDS pp ff pp
0.0000000000000000e+00 1.0000000000000000e+02
0.0000000000000000e+00 3.0000000000000000e+01
0.0000000000000000e+00 3.0000000000000000e+01
ITEM: ATOMS id type xs ys zs
1 1 0.400807 0.696761 0.0694364
2 2 0.400337 0.729026 0.0612128
3 2 0.395222 0.691287 0.0965392
4 1 0.581007 0.501629 0.182867
5 2 0.57113 0.496684 0.18455
6 2 0.584123 0.516818 0.21066
7 1 0.01742 0.372478 0.112424
8 2 0.0227819 0.37728 0.0847005
9 2 0.00826649 0.361819 0.104267
10 1 0.547611 0.515088 0.33764
11 2 0.538775 0.527023 0.347691
12 2 0.552505 0.502325 0.363757
13 1 0.898519 0.42426 0.4274
14 2 0.892918 0.440393 0.40499
15 2 0.908196 0.429455 0.420791
16 1 0.289427 0.480745 0.736857
17 2 0.285846 0.464993 0.710015
18 2 0.298571 0.469212 0.74387
19 1 0.344977 0.169841 0.358983
20 2 0.354491 0.180016 0.360343
21 2 0.344679 0.137715 0.350149
22 1 0.13975 0.412191 0.382755
23 2 0.141064 0.391571 0.408577
24 2 0.145622 0.43892 0.386438
25 1 0.34919 0.710385 0.403217
26 2 0.354621 0.69984 0.377289
27 2 0.352779 0.696991 0.431299
28 1 0.572698 0.374537 0.308739
29 2 0.567906 0.398645 0.292162
30 2 0.580481 0.36395 0.290684
31 1 0.595611 0.354558 0.24933
32 2 0.604187 0.33775 0.245956
33 2 0.596851 0.3858 0.238471
34 1 0.155143 0.471574 0.578977
35 2 0.147026 0.464125 0.596966
36 2 0.153523 0.463751 0.547028
37 1 0.314122 0.445952 0.758435
38 2 0.318669 0.447002 0.788105
39 2 0.320962 0.448203 0.734225
40 1 0.306309 0.297026 0.463887
41 2 0.311689 0.268926 0.463925
42 2 0.301492 0.299919 0.434821
43 1 0.14793 0.295459 0.404599
44 2 0.138598 0.290165 0.393855
45 2 0.153682 0.269464 0.396365
46 1 0.562356 0.451516 0.381637
47 2 0.55929 0.438222 0.352828
48 2 0.570257 0.434527 0.39299
49 1 0.593014 0.466751 0.299828
50 2 0.597262 0.453013 0.27296
51 2 0.599493 0.466323 0.325214
52 1 0.834123 0.679069 0.522739
53 2 0.828704 0.651065 0.52198
54 2 0.83782 0.685168 0.492373
55 1 0.646726 0.93534 0.667012
56 2 0.650661 0.9382 0.697522
57 2 0.650483 0.90833 0.652021
58 1 0.258854 0.66305 0.581675
59 2 0.267638 0.658803 0.597028
60 2 0.25563 0.633758 0.569944
61 1 0.262291 0.135463 0.80462
62 2 0.262847 0.152098 0.833445
63 2 0.254582 0.114257 0.805663
64 1 0.325351 0.395035 0.595125
65 2 0.332043 0.412097 0.577167
66 2 0.322076 0.36898 0.577432
67 1 0.328664 0.526553 0.227314
68 2 0.334598 0.514979 0.25152
69 2 0.329488 0.559731 0.225636
70 1 0.879808 0.453712 0.362363
71 2 0.873277 0.473788 0.347065
72 2 0.878829 0.422717 0.35054
73 1 0.993738 0.372429 0.223497
74 2 0.989904 0.393485 0.245955
75 2 0.00362171 0.370056 0.227983
76 1 0.79053 0.543273 0.6507
77 2 0.786789 0.531154 0.679138
78 2 0.797942 0.564566 0.657586
79 1 0.289606 0.165938 0.812485
80 2 0.295444 0.166166 0.785421
81 2 0.281077 0.149961 0.805594
82 1 0.614654 0.411897 0.144978
83 2 0.614999 0.37881 0.141105
84 2 0.607287 0.424429 0.126242
85 1 0.252093 0.48241 0.646268
86 2 0.246388 0.455701 0.652284
87 2 0.261683 0.473131 0.644549
88 1 0.521479 0.870101 0.89525
89 2 0.522494 0.879838 0.863551
90 2 0.511949 0.87376 0.904665
91 1 0.33695 0.617745 0.226745
92 2 0.342252 0.626179 0.199772
93 2 0.330183 0.64145 0.233105
94 1 0.498656 0.82169 0.812517
95 2 0.508553 0.826273 0.813849
96 2 0.496596 0.796236 0.79212
97 1 0.602622 0.437035 0.222852
98 2 0.599447 0.467824 0.215697
99 2 0.609807 0.428252 0.201398
100 1 0.180037 0.383681 0.526398
101 2 0.179544 0.416383 0.532644
102 2 0.189614 0.374466 0.523744
103 1 0.293254 0.543393 0.678318
104 2 0.291567 0.573888 0.690545
105 2 0.292545 0.520969 0.702869
106 1 0.279739 0.454878 0.649788
107 2 0.283407 0.485223 0.656176
108 2 0.284793 0.441214 0.624478
109 1 0.22039 0.444949 0.681584
110 2 0.221178 0.451159 0.714228
111 2 0.210951 0.450009 0.671809
112 1 0.295853 0.619616 0.202276
113 2 0.287262 0.620014 0.185222
114 2 0.296853 0.590259 0.21771
115 1 0.524623 0.85229 0.788832
116 2 0.526895 0.873283 0.764072
117 2 0.532926 0.836843 0.799157
118 1 0.268855 0.615772 0.146436
119 2 0.273304 0.58687 0.138959
120 2 0.261292 0.621121 0.125295
121 1 0.977517 0.32676 0.161965
122 2 0.984251 0.348304 0.173926
123 2 0.974215 0.307309 0.186695
124 1 0.11937 0.294699 0.365363
125 2 0.111784 0.276045 0.35424
126 2 0.119683 0.323314 0.348299
127 1 0.809767 0.530912 0.572527
128 2 0.800257 0.525091 0.58103
129 2 0.812958 0.558662 0.587624
130 1 0.581886 0.549281 0.266835
131 2 0.579688 0.574167 0.287766
132 2 0.585093 0.522925 0.28422
133 1 0.174716 0.435484 0.691219
134 2 0.164951 0.434409 0.684113
135 2 0.175966 0.435277 0.72429
136 1 0.263547 0.488685 0.790254
137 2 0.269557 0.509103 0.77314
138 2 0.26866 0.461568 0.799491
139 1 0.415775 0.635615 0.0304397
140 2 0.407897 0.652066 0.0427279
141 2 0.423704 0.655909 0.0296112
142 1 0.309443 0.529359 0.1521
143 2 0.305473 0.558722 0.160691
144 2 0.317971 0.524654 0.168861
145 1 0.294033 0.415943 0.590821
146 2 0.290106 0.38531 0.589629
147 2 0.304006 0.413783 0.591989
148 1 0.318157 0.222333 0.455087
149 2 0.319044 0.190416 0.464233
150 2 0.321357 0.225934 0.423712
151 1 0.840298 0.463499 0.280807
152 2 0.831021 0.475834 0.282398
153 2 0.843313 0.454727 0.311355
154 1 0.360319 0.680525 0.491444
155 2 0.367748 0.663803 0.506218
156 2 0.352909 0.685398 0.51329
157 1 0.842631 0.978636 0.342154
158 2 0.840948 0.984175 0.309767
159 2 0.84551 0.947013 0.346518
160 1 0.799728 0.116451 0.163681
161 2 0.808084 0.0981387 0.163709
162 2 0.791889 0.0969434 0.170593
163 1 0.554833 0.493463 0.187327
164 2 0.556719 0.477955 0.216155
165 2 0.545489 0.505331 0.187655
166 1 0.32073 0.21091 0.348408
167 2 0.327601 0.187089 0.352771
168 2 0.311785 0.196871 0.343398
169 1 0.0210945 0.367788 0.209898
170 2 0.0231121 0.40031 0.212761
171 2 0.0224317 0.358263 0.178267
172 1 0.116152 0.392853 0.341286
173 2 0.121957 0.407677 0.364023
174 2 0.118489 0.404242 0.310943
175 1 0.563301 0.460917 0.277719
176 2 0.556581 0.475264 0.297806
177 2 0.572522 0.468895 0.287859
178 1 0.325738 0.732657 0.464287
179 2 0.318366 0.741251 0.44347
180 2 0.334368 0.731176 0.44751
181 1 0.327122 0.445765 0.672382
182 2 0.326741 0.414455 0.661015
183 2 0.324211 0.466715 0.648341
184 1 0.785907 0.583077 0.237253
185 2 0.781428 0.554717 0.228095
186 2 0.790857 0.595846 0.211255
187 1 0.870915 0.370939 0.326536
188 2 0.86614 0.382041 0.299434
189 2 0.876524 0.344563 0.318416
190 1 0.319161 0.328895 0.539705
191 2 0.313159 0.326885 0.513119
192 2 0.32839 0.31927 0.531215
193 1 0.861972 0.41295 0.246126
194 2 0.854357 0.432335 0.255661
195 2 0.864618 0.420733 0.214937
196 1 0.212684 0.464261 0.782339
197 2 0.222298 0.472603 0.786147
198 2 0.207863 0.488814 0.766527
199 1 0.23718 0.49885 0.770453
200 2 0.237777 0.523038 0.747603
201 2 0.246106 0.49475 0.784913
202 1 0.193755 0.477704 0.642203
203 2 0.192205 0.475413 0.609351
204 2 0.187941 0.455698 0.658057
205 1 0.584005 0.375276 0.392755
206 2 0.581824 0.345919 0.406771
207 2 0.580833 0.375417 0.361143
208 1 0.774237 0.103229 0.206436
209 2 0.771138 0.127814 0.186436
210 2 0.766547 0.0831174 0.213473
211 1 0.550023 0.82531 0.819846
212 2 0.548362 0.823232 0.852651
213 2 0.559133 0.81343 0.812929
214 1 0.297637 0.539861 0.242191
215 2 0.293977 0.515375 0.261235
216 2 0.307559 0.536546 0.23967
217 1 0.18394 0.43647 0.779995
218 2 0.180511 0.439674 0.811143
219 2 0.193938 0.435938 0.780389
220 1 0.822975 0.596133 0.513395
221 2 0.815199 0.596683 0.492443
222 2 0.824051 0.565413 0.525827
223 1 0.182529 0.478926 0.553673
224 2 0.182979 0.508287 0.537965
225 2 0.173793 0.47637 0.569692
226 1 0.283271 0.539866 0.117332
227 2 0.282587 0.517079 0.0931103
228 2 0.292568 0.539976 0.129604
229 1 0.814596 0.599216 0.635025
230 2 0.812139 0.628195 0.620734
231 2 0.823705 0.601688 0.648553
232 1 0.4961 0.88666 0.885698
233 2 0.494547 0.867699 0.858776
234 2 0.487341 0.898076 0.897026
235 1 0.266756 0.538443 0.238663
236 2 0.276049 0.543572 0.227465
237 2 0.260195 0.55185 0.217378
238 1 0.158141 0.363038 0.46975
239 2 0.157185 0.336626 0.449666
240 2 0.166615 0.360348 0.487245
241 1 0.0262253 0.302533 0.284531
242 2 0.01672 0.29423 0.290719
243 2 0.0264667 0.328512 0.263662
244 1 0.268233 0.196624 0.871629
245 2 0.277033 0.186676 0.859307
246 2 0.267014 0.229178 0.865727
247 1 0.393141 0.789843 0.0540305
248 2 0.392482 0.803151 0.0235477
249 2 0.38834 0.809323 0.0758373
250 1 0.843198 0.438925 0.368778
251 2 0.841023 0.460605 0.393037
252 2 0.848554 0.413741 0.381354
253 1 0.22735 0.532492 0.653809
254 2 0.237034 0.524189 0.653981
255 2 0.221774 0.504825 0.653388
256 1 0.546899 0.832665 0.914303
257 2 0.537671 0.845401 0.91263
258 2 0.5507 0.838169 0.94464
259 1 0.372394 0.188595 0.325712
260 2 0.37024 0.202252 0.296164
261 2 0.381056 0.200912 0.336923
262 1 0.0287906 0.0996361 0.754966
263 2 0.0259995 0.080669 0.78075
264 2 0.0384766 0.0944918 0.748469
265 1 0.780754 0.176271 0.128886
266 2 0.789119 0.172096 0.146672
267 2 0.782388 0.166964 0.0973448
268 1 0.589822 0.438529 0.120277
269 2 0.584307 0.457497 0.140607
270 2 0.58762 0.445845 0.0885955
271 1 0.840853 0.647527 0.625395
272 2 0.850804 0.650485 0.626877
273 2 0.837807 0.651943 0.593955
274 1 0.876083 0.38359 0.474043
275 2 0.875323 0.407565 0.497062
276 2 0.884671 0.38719 0.457354
277 1 0.858903 0.379308 0.404837
278 2 0.862978 0.368804 0.376268
279 2 0.865781 0.378457 0.429016
280 1 0.336915 0.703674 0.544401
281 2 0.331175 0.721966 0.564661
282 2 0.333989 0.708176 0.512846
283 1 0.307996 0.502568 0.602318
284 2 0.301265 0.482893 0.587464
285 2 0.303357 0.52277 0.623854
286 1 0.996642 0.3335 0.0632506
287 2 0.991596 0.313299 0.0837481
288 2 0.990187 0.350667 0.0444479
289 1 0.313426 0.677096 0.245774
290 2 0.309876 0.694995 0.271282
291 2 0.306241 0.656975 0.23426
292 1 0.141774 0.425881 0.510511
293 2 0.135747 0.408352 0.530519
294 2 0.147416 0.404997 0.492589
295 1 0.203279 0.523191 0.719602
296 2 0.199593 0.516549 0.689337
297 2 0.210046 0.547629 0.717317
298 1 0.2743 0.445903 0.251278
299 2 0.268562 0.471881 0.259666
300 2 0.273767 0.440969 0.218359
ITEM: TIMESTEP
5700
ITEM: NUMBER OF ATOMS
300
ITEM: BOX BOUNDS pp ff pp
0.0000000000000000e+00 1.0000000000000000e+02
0.0000000000000000e+00 3.0000000000000000e+01
0.0000000000000000e+00 3.0000000000000000e+01
ITEM: ATOMS id type xs ys zs
1 1 0.397533 0.674572 0.0790072
2 2 0.392087 0.700888 0.0884416
3 2 0.391552 0.64814 0.0751225
4 1 0.585889 0.502357 0.175064
5 2 0.576643 0.490471 0.170601
6 2 0.585911 0.523721 0.200651
7 1 0.0182599 0.33031 0.111836
8 2 0.0255591 0.310271 0.100993
9 2 0.0112988 0.333455 0.0881123
10 1 0.548068 0.504231 0.326814
11 2 0.539101 0.518972 0.327453
12 2 0.550408 0.493595 0.357427
13 1 0.901511 0.423621 0.41131
14 2 0.898557 0.418622 0.379859
15 2 0.911502 0.424423 0.412531
16 1 0.296223 0.504675 0.740267
17 2 0.294587 0.475165 0.725757
18 2 0.302267 0.500598 0.766509
19 1 0.340779 0.180185 0.366385
20 2 0.348255 0.167298 0.348385
21 2 0.341957 0.171795 0.398405
22 1 0.134497 0.419382 0.403208
23 2 0.137497 0.398928 0.427554
24 2 0.14249 0.43211 0.387743
25 1 0.343501 0.741237 0.411227
26 2 0.346277 0.739239 0.379267
27 2 0.350702 0.728538 0.430559
28 1 0.569859 0.366683 0.321265
29 2 0.565342 0.393459 0.308325
30 2 0.575397 0.351884 0.297784
31 1 0.585873 0.349565 0.24613
32 2 0.591547 0.322439 0.241939
33 2 0.591088 0.37667 0.237514
34 1 0.156794 0.474614 0.575444
35 2 0.150547 0.484843 0.59938
36 2 0.151855 0.455139 0.553976
37 1 0.315727 0.473211 0.79084
38 2 0.321226 0.469533 0.818436
39 2 0.319609 0.454663 0.766352
40 1 0.306689 0.295691 0.472838
41 2 0.307541 0.265118 0.459865
42 2 0.308641 0.318391 0.449313
43 1 0.147533 0.294226 0.410608
44 2 0.141362 0.298986 0.384812
45 2 0.146167 0.263596 0.422944
46 1 0.554492 0.452778 0.405471
47 2 0.55425 0.419631 0.402054
48 2 0.563711 0.462303 0.414196
49 1 0.591508 0.457655 0.301627
50 2 0.595369 0.435049 0.280785
51 2 0.589237 0.443014 0.3306
52 1 0.835745 0.662246 0.53462
53 2 0.829551 0.636267 0.531476
54 2 0.837349 0.675876 0.504675
55 1 0.649229 0.915375 0.685896
56 2 0.64304 0.903264 0.709109
57 2 0.657419 0.927619 0.700591
58 1 0.266507 0.670758 0.605978
59 2 0.25758 0.655738 0.605668
60 2 0.265939 0.699507 0.589215
61 1 0.259968 0.144099 0.786673
62 2 0.258181 0.154177 0.817883
63 2 0.252066 0.127168 0.775246
64 1 0.322042 0.400371 0.618099
65 2 0.326202 0.425431 0.601045
66 2 0.320317 0.374778 0.597532
67 1 0.321504 0.544763 0.237162
68 2 0.325762 0.516771 0.248393
69 2 0.328586 0.567435 0.230859
70 1 0.888549 0.431241 0.326464
71 2 0.883082 0.454118 0.310476
72 2 0.883288 0.403032 0.329253
73 1 0.99996 0.323084 0.223553
74 2 0.00589708 0.3148 0.249065
75 2 0.00371395 0.349779 0.207998
76 1 0.798596 0.550001 0.653833
77 2 0.78908 0.541487 0.659525
78 2 0.800237 0.580804 0.665338
79 1 0.285035 0.168538 0.81736
80 2 0.293688 0.155223 0.807268
81 2 0.277467 0.154017 0.801117
82 1 0.61691 0.426145 0.156329
83 2 0.625056 0.420222 0.137927
84 2 0.608789 0.424881 0.136917
85 1 0.250447 0.47508 0.661672
86 2 0.250327 0.443885 0.649932
87 2 0.259915 0.485083 0.665561
88 1 0.523481 0.847854 0.907205
89 2 0.52826 0.864694 0.883251
90 2 0.513922 0.857584 0.908317
91 1 0.339572 0.615203 0.219911
92 2 0.346272 0.632424 0.202142
93 2 0.331296 0.633501 0.223813
94 1 0.503309 0.831006 0.821422
95 2 0.510735 0.850953 0.8114
96 2 0.506427 0.799336 0.821012
97 1 0.600169 0.433462 0.228518
98 2 0.592481 0.449131 0.214066
99 2 0.607951 0.432946 0.207589
100 1 0.179522 0.388511 0.497853
101 2 0.181812 0.397218 0.529111
102 2 0.176161 0.415191 0.481309
103 1 0.296964 0.554756 0.659107
104 2 0.296096 0.587948 0.66013
105 2 0.296378 0.542475 0.690034
106 1 0.277006 0.476 0.652573
107 2 0.283259 0.501981 0.653866
108 2 0.281216 0.451361 0.635049
109 1 0.221953 0.414955 0.676642
110 2 0.222891 0.425568 0.708086
111 2 0.212257 0.411578 0.669218
112 1 0.300853 0.611767 0.19785
113 2 0.294289 0.624579 0.176209
114 2 0.296316 0.588745 0.216622
115 1 0.526287 0.87584 0.802587
116 2 0.529055 0.904381 0.788049
117 2 0.533095 0.852274 0.796199
118 1 0.283257 0.631598 0.12333
119 2 0.283813 0.600026 0.112797
120 2 0.282494 0.651946 0.097051
121 1 0.980163 0.327053 0.149353
122 2 0.987175 0.328581 0.173068
123 2 0.973783 0.302339 0.156289
124 1 0.12262 0.295691 0.363453
125 2 0.119948 0.265002 0.353967
126 2 0.116734 0.318085 0.348462
127 1 0.807457 0.570142 0.562418
128 2 0.814772 0.549384 0.571674
129 2 0.799878 0.567953 0.584052
130 1 0.591841 0.542961 0.257457
131 2 0.601301 0.550648 0.265062
132 2 0.588752 0.517862 0.276825
133 1 0.168954 0.434581 0.700401
134 2 0.160477 0.451277 0.70623
135 2 0.176004 0.444712 0.721761
136 1 0.26462 0.494704 0.793941
137 2 0.270775 0.510934 0.77328
138 2 0.269624 0.485718 0.821367
139 1 0.42038 0.650398 0.0244656
140 2 0.412987 0.663547 0.0426583
141 2 0.428251 0.644257 0.0440864
142 1 0.312347 0.553433 0.143242
143 2 0.309633 0.580584 0.160333
144 2 0.314971 0.529312 0.164521
145 1 0.295678 0.410204 0.590028
146 2 0.297161 0.396774 0.559924
147 2 0.303165 0.401469 0.610326
148 1 0.312233 0.221464 0.432745
149 2 0.310597 0.190881 0.444828
150 2 0.31044 0.221684 0.399952
151 1 0.840777 0.448815 0.277745
152 2 0.831442 0.455772 0.268029
153 2 0.840998 0.445137 0.310867
154 1 0.358093 0.690531 0.470342
155 2 0.354957 0.658899 0.471475
156 2 0.357149 0.704359 0.500508
157 1 0.845805 0.943112 0.365107
158 2 0.850653 0.926154 0.388821
159 2 0.850272 0.972563 0.360405
160 1 0.799243 0.0921691 0.1393
161 2 0.80185 0.0855542 0.107806
162 2 0.789456 0.0988753 0.140649
163 1 0.55788 0.469807 0.174805
164 2 0.558474 0.454645 0.204424
165 2 0.548421 0.469044 0.164019
166 1 0.321375 0.23319 0.329607
167 2 0.325707 0.239614 0.358955
168 2 0.327229 0.212823 0.311845
169 1 0.0111128 0.392843 0.174944
170 2 0.00643407 0.407941 0.149648
171 2 0.0164564 0.36719 0.163292
172 1 0.114239 0.378954 0.329493
173 2 0.1211 0.391493 0.350248
174 2 0.105703 0.39602 0.332692
175 1 0.565021 0.454506 0.271602
176 2 0.558176 0.474281 0.285725
177 2 0.574175 0.465193 0.279712
178 1 0.324024 0.71197 0.499893
179 2 0.315469 0.694726 0.500654
180 2 0.323661 0.734356 0.475225
181 1 0.315926 0.435356 0.698417
182 2 0.320346 0.420716 0.672347
183 2 0.311667 0.463869 0.688586
184 1 0.783473 0.570087 0.270671
185 2 0.776883 0.545952 0.27745
186 2 0.782888 0.593773 0.294044
187 1 0.875971 0.353094 0.303489
188 2 0.873304 0.380295 0.286396
189 2 0.881882 0.334013 0.284544
190 1 0.315717 0.336717 0.556328
191 2 0.30922 0.316811 0.540651
192 2 0.325016 0.329274 0.546584
193 1 0.867039 0.427987 0.25788
194 2 0.859031 0.443893 0.269947
195 2 0.867886 0.434193 0.225251
196 1 0.211811 0.479503 0.763078
197 2 0.221672 0.475749 0.767134
198 2 0.210081 0.499638 0.737146
199 1 0.240684 0.463632 0.756221
200 2 0.243197 0.460459 0.724114
201 2 0.248395 0.476368 0.773202
202 1 0.194056 0.439751 0.655733
203 2 0.192195 0.434544 0.623398
204 2 0.186683 0.426604 0.674018
205 1 0.5853 0.419677 0.387123
206 2 0.587464 0.406815 0.417017
207 2 0.582615 0.395186 0.366357
208 1 0.774055 0.105804 0.174072
209 2 0.77601 0.13018 0.195854
210 2 0.767625 0.0841951 0.187666
211 1 0.541555 0.805699 0.805334
212 2 0.541068 0.803149 0.83853
213 2 0.544054 0.776165 0.792317
214 1 0.292978 0.539106 0.248608
215 2 0.287213 0.511933 0.246763
216 2 0.302488 0.52999 0.253424
217 1 0.185478 0.451751 0.773491
218 2 0.179941 0.471101 0.793391
219 2 0.195174 0.457675 0.779097
220 1 0.81647 0.610432 0.486942
221 2 0.817812 0.58682 0.463842
222 2 0.814355 0.59614 0.516219
223 1 0.18264 0.458616 0.566946
224 2 0.188072 0.48592 0.560795
225 2 0.173161 0.46736 0.572965
226 1 0.28688 0.550136 0.0933958
227 2 0.289671 0.53752 0.0639781
228 2 0.294215 0.545706 0.115616
229 1 0.804008 0.641194 0.656337
230 2 0.800009 0.66539 0.637685
231 2 0.81394 0.644941 0.65739
232 1 0.493458 0.888362 0.882795
233 2 0.494332 0.867604 0.856877
234 2 0.484568 0.903577 0.881567
235 1 0.263974 0.513701 0.249387
236 2 0.262467 0.534619 0.274849
237 2 0.261129 0.528313 0.220967
238 1 0.153116 0.371596 0.457476
239 2 0.150689 0.344352 0.440057
240 2 0.162567 0.369059 0.468071
241 1 0.0192913 0.286215 0.266059
242 2 0.0212893 0.255686 0.254453
243 2 0.0246694 0.291786 0.293603
244 1 0.265086 0.190446 0.882639
245 2 0.271932 0.195858 0.858953
246 2 0.269674 0.184541 0.911662
247 1 0.388009 0.756969 0.09003
248 2 0.386342 0.785768 0.105867
249 2 0.389594 0.762928 0.057662
250 1 0.840269 0.440564 0.370806
251 2 0.83927 0.460181 0.397549
252 2 0.847461 0.418096 0.376424
253 1 0.230418 0.526155 0.638357
254 2 0.238774 0.514574 0.652544
255 2 0.22672 0.503124 0.617652
256 1 0.539257 0.778665 0.888227
257 2 0.532341 0.79579 0.905149
258 2 0.545239 0.762711 0.909652
259 1 0.363465 0.1855 0.315891
260 2 0.363012 0.218668 0.318842
261 2 0.370987 0.177291 0.295514
262 1 0.0293631 0.0925349 0.762403
263 2 0.0310171 0.115735 0.785694
264 2 0.0381091 0.0808172 0.751272
265 1 0.782734 0.202182 0.208987
266 2 0.792278 0.206576 0.200066
267 2 0.777 0.224586 0.193372
268 1 0.591844 0.428156 0.122386
269 2 0.58778 0.453795 0.138822
270 2 0.584745 0.41231 0.105065
271 1 0.832766 0.66954 0.625682
272 2 0.841565 0.668782 0.641501
273 2 0.834274 0.666991 0.592829
274 1 0.884379 0.366161 0.476529
275 2 0.891489 0.342957 0.473199
276 2 0.88791 0.395613 0.466273
277 1 0.861651 0.380758 0.383487
278 2 0.86531 0.367399 0.355489
279 2 0.86553 0.365006 0.409864
280 1 0.344453 0.703879 0.55723
281 2 0.341919 0.700899 0.589337
282 2 0.336265 0.709919 0.539074
283 1 0.313405 0.509911 0.596123
284 2 0.308564 0.497598 0.569682
285 2 0.307614 0.532341 0.611465
286 1 0.996656 0.363412 0.0680883
287 2 0.990877 0.340091 0.0820949
288 2 0.992699 0.393518 0.0736348
289 1 0.317506 0.670193 0.236651
290 2 0.313377 0.682817 0.264261
291 2 0.310734 0.651846 0.220373
292 1 0.142527 0.416767 0.522814
293 2 0.137969 0.391405 0.538212
294 2 0.147854 0.405132 0.497115
295 1 0.206169 0.522054 0.692603
296 2 0.199988 0.502454 0.675211
297 2 0.213971 0.530522 0.673548
298 1 0.285373 0.443525 0.243857
299 2 0.277778 0.462854 0.23403
300 2 0.282592 0.425763 0.270496
ITEM: TIMESTEP
5800
ITEM: NUMBER OF ATOMS
300
ITEM: BOX BOUNDS pp ff pp
0.0000000000000000e+00 1.0000000000000000e+02
0.0000000000000000e+00 3.0000000000000000e+01
0.0000000000000000e+00 3.0000000000000000e+01
ITEM: ATOMS id type xs ys zs
1 1 0.39466 0.643003 0.0818371
2 2 0.391515 0.660468 0.108222
3 2 0.38756 0.621381 0.0727061
4 1 0.589798 0.48468 0.174658
5 2 0.580021 0.481318 0.168516
6 2 0.591191 0.508945 0.197036
7 1 0.0186938 0.315764 0.108477
8 2 0.0128934 0.327676 0.132878
9 2 0.0140429 0.319476 0.0792027
10 1 0.550048 0.486693 0.342723
11 2 0.543448 0.510978 0.348839
12 2 0.553042 0.473228 0.371535
13 1 0.903272 0.433848 0.403446
14 2 0.903757 0.419595 0.373357
15 2 0.906511 0.46532 0.401425
16 1 0.287307 0.513012 0.743679
17 2 0.283383 0.488407 0.725386
18 2 0.296108 0.503224 0.756113
19 1 0.339261 0.183924 0.36935
20 2 0.345531 0.175479 0.344795
21 2 0.343086 0.174289 0.398601
22 1 0.126861 0.454767 0.382157
23 2 0.132639 0.465809 0.357292
24 2 0.132533 0.439276 0.404819
25 1 0.332694 0.744333 0.422523
26 2 0.33091 0.75774 0.39259
27 2 0.341061 0.726127 0.4212
28 1 0.567014 0.387579 0.32695
29 2 0.560614 0.403416 0.306819
30 2 0.571274 0.36234 0.310443
31 1 0.580133 0.332391 0.265337
32 2 0.585697 0.305187 0.260123
33 2 0.584735 0.35896 0.252302
34 1 0.158484 0.458717 0.543065
35 2 0.156272 0.490715 0.548799
36 2 0.150149 0.4404 0.544963
37 1 0.310356 0.482537 0.775178
38 2 0.31781 0.496973 0.792066
39 2 0.314151 0.46332 0.751058
40 1 0.315175 0.323167 0.475605
41 2 0.307715 0.308289 0.459127
42 2 0.322745 0.329097 0.454649
43 1 0.147186 0.29629 0.416331
44 2 0.140208 0.292276 0.392795
45 2 0.148557 0.26748 0.432463
46 1 0.548681 0.432768 0.423055
47 2 0.541902 0.434069 0.447525
48 2 0.546501 0.407511 0.402552
49 1 0.589641 0.492144 0.305102
50 2 0.596221 0.469507 0.294258
51 2 0.58682 0.484516 0.336158
52 1 0.836834 0.633573 0.540793
53 2 0.834962 0.646333 0.510637
54 2 0.834197 0.601424 0.541289
55 1 0.65265 0.897273 0.707549
56 2 0.646 0.873798 0.699263
57 2 0.647856 0.925685 0.714506
58 1 0.259619 0.671919 0.643999
59 2 0.259394 0.692139 0.617509
60 2 0.253401 0.683489 0.667399
61 1 0.259762 0.148721 0.784445
62 2 0.255661 0.15865 0.81318
63 2 0.253021 0.131546 0.766802
64 1 0.324123 0.406911 0.597825
65 2 0.32275 0.439635 0.602212
66 2 0.317758 0.39573 0.574675
67 1 0.324269 0.528629 0.238952
68 2 0.330829 0.510611 0.256514
69 2 0.327264 0.560419 0.238051
70 1 0.896686 0.408293 0.316824
71 2 0.888705 0.422856 0.302993
72 2 0.896084 0.375277 0.312692
73 1 0.000819225 0.30822 0.195909
74 2 0.00956617 0.29764 0.208119
75 2 1.00151 0.340549 0.188117
76 1 0.806712 0.595733 0.650978
77 2 0.802051 0.570214 0.66576
78 2 0.803992 0.62426 0.665645
79 1 0.282602 0.166105 0.827306
80 2 0.291659 0.159804 0.814651
81 2 0.275712 0.162952 0.803353
82 1 0.620806 0.418837 0.157758
83 2 0.624599 0.447099 0.145404
84 2 0.613118 0.408943 0.138878
85 1 0.253884 0.465283 0.668348
86 2 0.251091 0.434716 0.658854
87 2 0.263842 0.467805 0.666683
88 1 0.524756 0.8377 0.905406
89 2 0.525653 0.856729 0.878202
90 2 0.515852 0.843147 0.919568
91 1 0.340405 0.611155 0.234283
92 2 0.348194 0.615964 0.213938
93 2 0.335798 0.640228 0.23976
94 1 0.502717 0.859367 0.816655
95 2 0.512493 0.862758 0.8228
96 2 0.500796 0.827902 0.807708
97 1 0.601359 0.403311 0.226373
98 2 0.595208 0.42286 0.208805
99 2 0.610564 0.404933 0.213451
100 1 0.172727 0.405502 0.492415
101 2 0.167134 0.429467 0.506172
102 2 0.180908 0.400624 0.510949
103 1 0.295921 0.554656 0.670566
104 2 0.292583 0.582964 0.65693
105 2 0.291103 0.54907 0.699236
106 1 0.28034 0.466457 0.652609
107 2 0.284581 0.49566 0.644964
108 2 0.285309 0.441798 0.637486
109 1 0.22713 0.414691 0.665952
110 2 0.229568 0.385694 0.680243
111 2 0.21742 0.414468 0.657993
112 1 0.299385 0.643992 0.198829
113 2 0.293808 0.643501 0.171166
114 2 0.297479 0.61676 0.216971
115 1 0.530683 0.869424 0.821821
116 2 0.53707 0.894367 0.815846
117 2 0.534912 0.840477 0.813193
118 1 0.286713 0.644732 0.119994
119 2 0.290053 0.615092 0.10957
120 2 0.281677 0.659597 0.0953288
121 1 0.980213 0.312424 0.13637
122 2 0.985886 0.290164 0.152435
123 2 0.970669 0.308694 0.145593
124 1 0.12838 0.283533 0.351959
125 2 0.125558 0.259784 0.330543
126 2 0.123073 0.311218 0.34632
127 1 0.807414 0.580643 0.557516
128 2 0.808256 0.589329 0.589575
129 2 0.797968 0.585077 0.547517
130 1 0.595572 0.54507 0.238613
131 2 0.604355 0.559929 0.244375
132 2 0.592398 0.530179 0.266495
133 1 0.18186 0.432738 0.721926
134 2 0.172627 0.42153 0.728116
135 2 0.185863 0.444677 0.750043
136 1 0.261878 0.491364 0.783364
137 2 0.268565 0.505478 0.762988
138 2 0.266333 0.483061 0.812029
139 1 0.416088 0.680128 0.043451
140 2 0.409029 0.658588 0.0531146
141 2 0.419826 0.670525 0.0140631
142 1 0.313269 0.569343 0.156282
143 2 0.308508 0.59736 0.164899
144 2 0.317198 0.555182 0.183467
145 1 0.291824 0.408327 0.581087
146 2 0.296782 0.379502 0.583738
147 2 0.284401 0.404958 0.559004
148 1 0.306391 0.254022 0.419871
149 2 0.297435 0.239797 0.415678
150 2 0.313284 0.236845 0.402895
151 1 0.847241 0.431683 0.283958
152 2 0.838984 0.436541 0.265793
153 2 0.844931 0.432972 0.316363
154 1 0.356939 0.705752 0.439223
155 2 0.36208 0.680784 0.425292
156 2 0.356719 0.701629 0.472292
157 1 0.850038 0.914 0.387464
158 2 0.84054 0.917437 0.397309
159 2 0.855312 0.899126 0.411566
160 1 0.795102 0.0827343 0.123615
161 2 0.78973 0.0630759 0.103515
162 2 0.789207 0.106469 0.136331
163 1 0.564073 0.448017 0.174465
164 2 0.563124 0.459235 0.205695
165 2 0.564542 0.414721 0.174725
166 1 0.313778 0.202072 0.344309
167 2 0.322584 0.190195 0.354714
168 2 0.315175 0.221209 0.317417
169 1 0.00890972 0.393049 0.161907
170 2 0.00547976 0.396402 0.130776
171 2 0.0185943 0.401303 0.162837
172 1 0.113774 0.367421 0.353596
173 2 0.116427 0.398688 0.346161
174 2 0.108332 0.367357 0.381559
175 1 0.563779 0.460706 0.265712
176 2 0.557346 0.473415 0.287844
177 2 0.573037 0.471028 0.272947
178 1 0.332683 0.741666 0.514914
179 2 0.328976 0.769603 0.528253
180 2 0.332218 0.743594 0.481673
181 1 0.322686 0.420221 0.71925
182 2 0.329476 0.409203 0.741103
183 2 0.325284 0.410657 0.688514
184 1 0.778404 0.555073 0.299709
185 2 0.779736 0.588084 0.30099
186 2 0.78217 0.543274 0.271173
187 1 0.870651 0.343707 0.281981
188 2 0.872817 0.373308 0.26846
189 2 0.864341 0.327225 0.262056
190 1 0.307621 0.334927 0.55811
191 2 0.311502 0.334377 0.527394
192 2 0.314806 0.328442 0.58037
193 1 0.872421 0.431542 0.262159
194 2 0.862938 0.428972 0.272429
195 2 0.872809 0.450622 0.234858
196 1 0.210771 0.489124 0.752745
197 2 0.219834 0.475042 0.753006
198 2 0.209454 0.505476 0.724032
199 1 0.237826 0.483859 0.749218
200 2 0.241841 0.477633 0.719331
201 2 0.244982 0.494004 0.770177
202 1 0.198591 0.415074 0.655148
203 2 0.19284 0.41809 0.628047
204 2 0.192801 0.413247 0.682263
205 1 0.579118 0.446449 0.377374
206 2 0.578465 0.435378 0.40874
207 2 0.572882 0.429045 0.357981
208 1 0.779456 0.144837 0.165349
209 2 0.785459 0.140254 0.191611
210 2 0.778741 0.177424 0.15875
211 1 0.537878 0.783336 0.787616
212 2 0.532377 0.771778 0.81294
213 2 0.539276 0.759039 0.765276
214 1 0.297008 0.565486 0.240474
215 2 0.290632 0.547265 0.258569
216 2 0.305518 0.548503 0.236222
217 1 0.190679 0.457146 0.804618
218 2 0.187658 0.481598 0.824909
219 2 0.197684 0.46882 0.783891
220 1 0.8165 0.633663 0.473485
221 2 0.814695 0.625076 0.441844
222 2 0.811895 0.612264 0.493918
223 1 0.182119 0.452603 0.582821
224 2 0.184653 0.476218 0.604778
225 2 0.172927 0.45869 0.571195
226 1 0.297805 0.564831 0.0882992
227 2 0.298612 0.540262 0.065933
228 2 0.306547 0.568812 0.103988
229 1 0.794142 0.669542 0.691776
230 2 0.790335 0.686626 0.717431
231 2 0.800379 0.689122 0.674587
232 1 0.497872 0.863237 0.902498
233 2 0.499145 0.87167 0.87053
234 2 0.488964 0.874135 0.913017
235 1 0.26482 0.470323 0.244312
236 2 0.257069 0.474884 0.223752
237 2 0.262619 0.446287 0.266211
238 1 0.149349 0.375507 0.460688
239 2 0.14954 0.350455 0.43871
240 2 0.158468 0.388985 0.463056
241 1 0.020559 0.264142 0.251189
242 2 0.0199503 0.259365 0.284115
243 2 0.0221408 0.234928 0.236028
244 1 0.255737 0.174329 0.879748
245 2 0.264605 0.186211 0.869949
246 2 0.257081 0.145941 0.896636
247 1 0.390957 0.729144 0.1172
248 2 0.389023 0.761777 0.115034
249 2 0.398751 0.721634 0.0977121
250 1 0.842384 0.429631 0.374805
251 2 0.839328 0.421587 0.405507
252 2 0.852064 0.421972 0.371442
253 1 0.227311 0.501078 0.624088
254 2 0.22686 0.473652 0.642974
255 2 0.235373 0.518911 0.632513
256 1 0.523534 0.752561 0.864243
257 2 0.526003 0.781022 0.879519
258 2 0.521083 0.729669 0.887053
259 1 0.359492 0.174957 0.307717
260 2 0.35982 0.141919 0.312008
261 2 0.368485 0.18591 0.298098
262 1 0.0304196 0.0879294 0.771976
263 2 0.0312486 0.116185 0.75451
264 2 0.034716 0.0629972 0.755112
265 1 0.783502 0.178055 0.255592
266 2 0.77729 0.202697 0.264259
267 2 0.784691 0.157291 0.281365
268 1 0.596377 0.439768 0.095964
269 2 0.593149 0.456501 0.12271
270 2 0.591391 0.450087 0.0689747
271 1 0.82211 0.67648 0.619541
272 2 0.82981 0.674774 0.64074
273 2 0.824964 0.665218 0.589645
274 1 0.885427 0.367929 0.442597
275 2 0.889597 0.342807 0.459531
276 2 0.892593 0.388103 0.431045
277 1 0.866705 0.388561 0.355459
278 2 0.866792 0.370919 0.327178
279 2 0.87474 0.38075 0.373701
280 1 0.354867 0.69434 0.535466
281 2 0.3557 0.677537 0.56412
282 2 0.345511 0.705642 0.532192
283 1 0.315901 0.494831 0.626755
284 2 0.314474 0.514016 0.599914
285 2 0.311395 0.508663 0.653102
286 1 0.996071 0.373105 0.0799631
287 2 0.989062 0.360083 0.0998545
288 2 0.994095 0.365003 0.0483069
289 1 0.322434 0.679662 0.225354
290 2 0.319469 0.707845 0.240158
291 2 0.314533 0.664455 0.211707
292 1 0.139459 0.399387 0.542315
293 2 0.140898 0.372942 0.562032
294 2 0.141275 0.390887 0.510657
295 1 0.198121 0.512208 0.626033
296 2 0.200658 0.487801 0.647101
297 2 0.206347 0.524246 0.611393
298 1 0.291589 0.469385 0.259737
299 2 0.282325 0.475197 0.248616
300 2 0.29216 0.438249 0.271487
ITEM: TIMESTEP
5900
ITEM: NUMBER OF ATOMS
300
ITEM: BOX BOUNDS pp ff pp
0.0000000000000000e+00 1.0000000000000000e+02
0.0000000000000000e+00 3.0000000000000000e+01
0.0000000000000000e+00 3.0000000000000000e+01
ITEM: ATOMS id type xs ys zs
1 1 0.395987 0.645036 0.0766839
2 2 0.393158 0.668978 0.0978722
3 2 0.390112 0.618353 0.080639
4 1 0.592337 0.459677 0.157981
5 2 0.582595 0.452735 0.155059
6 2 0.593453 0.490213 0.170816
7 1 0.0199706 0.311375 0.0792124
8 2 0.0215514 0.292287 0.106027
9 2 0.010683 0.323687 0.0802492
10 1 0.54507 0.499404 0.368208
11 2 0.536155 0.507142 0.355242
12 2 0.544289 0.471322 0.385977
13 1 0.90597 0.44476 0.368172
14 2 0.902943 0.42333 0.344718
15 2 0.913311 0.463842 0.356
16 1 0.282672 0.467801 0.757499
17 2 0.28051 0.463872 0.725193
18 2 0.292587 0.469813 0.761345
19 1 0.335755 0.191821 0.360109
20 2 0.342187 0.174337 0.341514
21 2 0.340439 0.218184 0.373238
22 1 0.132472 0.441157 0.405436
23 2 0.137878 0.462373 0.387095
24 2 0.138467 0.417662 0.418079
25 1 0.328049 0.728087 0.433739
26 2 0.323062 0.713974 0.408528
27 2 0.337666 0.731621 0.425313
28 1 0.566057 0.397209 0.329062
29 2 0.559698 0.39312 0.303664
30 2 0.574021 0.377537 0.324656
31 1 0.585577 0.337679 0.2954
32 2 0.589627 0.307693 0.300849
33 2 0.592587 0.358448 0.283834
34 1 0.14913 0.481292 0.564236
35 2 0.140984 0.500493 0.566509
36 2 0.146672 0.45204 0.550514
37 1 0.314668 0.483516 0.76284
38 2 0.31809 0.48112 0.794069
39 2 0.319403 0.46141 0.74352
40 1 0.321219 0.33098 0.465921
41 2 0.315499 0.308646 0.450148
42 2 0.324023 0.354726 0.444477
43 1 0.147342 0.302627 0.411312
44 2 0.14458 0.292419 0.380945
45 2 0.145401 0.278637 0.433533
46 1 0.548496 0.398309 0.404631
47 2 0.544658 0.369994 0.416703
48 2 0.554322 0.391441 0.378424
49 1 0.591183 0.474624 0.286212
50 2 0.594198 0.443488 0.279837
51 2 0.588061 0.476689 0.317812
52 1 0.833381 0.647461 0.574347
53 2 0.829578 0.648976 0.543555
54 2 0.843272 0.642897 0.572578
55 1 0.654612 0.879874 0.728348
56 2 0.661392 0.870761 0.705603
57 2 0.647346 0.897364 0.71356
58 1 0.263978 0.656656 0.681457
59 2 0.259322 0.631993 0.697642
60 2 0.259254 0.662715 0.652709
61 1 0.25974 0.166508 0.778218
62 2 0.253346 0.161448 0.803341
63 2 0.256678 0.149543 0.751401
64 1 0.321764 0.41815 0.606277
65 2 0.325234 0.447691 0.616509
66 2 0.327887 0.40566 0.583071
67 1 0.320536 0.55413 0.236973
68 2 0.322326 0.521816 0.24257
69 2 0.328274 0.572236 0.247829
70 1 0.897071 0.389641 0.303831
71 2 0.891567 0.413616 0.289696
72 2 0.894638 0.360161 0.290553
73 1 0.999517 0.310181 0.175741
74 2 0.00483905 0.290132 0.195601
75 2 0.00416856 0.339551 0.172892
76 1 0.808467 0.60351 0.624667
77 2 0.817595 0.599638 0.637717
78 2 0.802917 0.62235 0.645012
79 1 0.278069 0.188896 0.836824
80 2 0.287357 0.193905 0.825528
81 2 0.272176 0.179475 0.811595
82 1 0.619242 0.399912 0.164058
83 2 0.619867 0.379548 0.13775
84 2 0.614587 0.428033 0.15514
85 1 0.25004 0.481789 0.648781
86 2 0.247405 0.450444 0.655953
87 2 0.259187 0.487817 0.660827
88 1 0.525087 0.799728 0.897991
89 2 0.528965 0.818424 0.873608
90 2 0.516606 0.813644 0.908864
91 1 0.339689 0.609808 0.272055
92 2 0.335994 0.620538 0.301112
93 2 0.336957 0.630704 0.247733
94 1 0.506943 0.899684 0.831017
95 2 0.516882 0.897757 0.834149
96 2 0.504055 0.882598 0.804063
97 1 0.597023 0.393937 0.239082
98 2 0.590825 0.416496 0.225837
99 2 0.605183 0.391231 0.220008
100 1 0.168711 0.391252 0.495824
101 2 0.17013 0.3999 0.527667
102 2 0.170191 0.417782 0.476256
103 1 0.297676 0.544384 0.632824
104 2 0.292021 0.546929 0.605451
105 2 0.296463 0.571582 0.651666
106 1 0.279963 0.470498 0.659031
107 2 0.28697 0.49171 0.648278
108 2 0.279532 0.444238 0.63855
109 1 0.220924 0.403968 0.66327
110 2 0.223126 0.371558 0.665879
111 2 0.211067 0.40761 0.65898
112 1 0.303831 0.646224 0.199551
113 2 0.296541 0.639945 0.177618
114 2 0.302045 0.629566 0.227802
115 1 0.531229 0.853752 0.817459
116 2 0.540482 0.864663 0.811072
117 2 0.530396 0.821982 0.807762
118 1 0.285505 0.63559 0.127242
119 2 0.291251 0.633655 0.10003
120 2 0.276028 0.641238 0.118218
121 1 0.972692 0.28998 0.13761
122 2 0.982485 0.289884 0.144357
123 2 0.968316 0.264219 0.152929
124 1 0.131681 0.298734 0.335782
125 2 0.126371 0.28749 0.30987
126 2 0.125895 0.318124 0.354837
127 1 0.80236 0.58392 0.537161
128 2 0.805147 0.584819 0.569161
129 2 0.795898 0.558904 0.532543
130 1 0.588986 0.529848 0.215952
131 2 0.584564 0.557982 0.226067
132 2 0.591386 0.511334 0.242491
133 1 0.188605 0.405171 0.735554
134 2 0.182549 0.385916 0.753797
135 2 0.19577 0.417841 0.755054
136 1 0.255954 0.487899 0.786714
137 2 0.2654 0.478051 0.781947
138 2 0.254026 0.489137 0.819398
139 1 0.414421 0.693507 0.0403128
140 2 0.409641 0.668861 0.0561169
141 2 0.413153 0.690173 0.00741729
142 1 0.321665 0.591927 0.15172
143 2 0.315373 0.616295 0.160517
144 2 0.322303 0.569643 0.176418
145 1 0.294085 0.398627 0.602998
146 2 0.303942 0.404056 0.601558
147 2 0.292284 0.36597 0.60007
148 1 0.305059 0.278097 0.408577
149 2 0.296777 0.293386 0.39784
150 2 0.304808 0.246021 0.399545
151 1 0.850853 0.45571 0.292888
152 2 0.846342 0.483781 0.283038
153 2 0.846934 0.44569 0.321872
154 1 0.355013 0.716062 0.420202
155 2 0.363965 0.711923 0.405933
156 2 0.355503 0.706931 0.452218
157 1 0.852782 0.879452 0.418358
158 2 0.845137 0.859333 0.425901
159 2 0.856117 0.872307 0.387755
160 1 0.783542 0.101322 0.13455
161 2 0.785245 0.100364 0.101718
162 2 0.786531 0.130721 0.146696
163 1 0.566319 0.448679 0.195692
164 2 0.56439 0.468309 0.221853
165 2 0.558451 0.428936 0.189902
166 1 0.30924 0.188782 0.389402
167 2 0.318654 0.189948 0.378218
168 2 0.306651 0.157075 0.394994
169 1 0.0143986 0.384548 0.17194
170 2 0.014961 0.413722 0.187955
171 2 0.00804856 0.38727 0.146334
172 1 0.118755 0.34982 0.394906
173 2 0.117296 0.380777 0.383543
174 2 0.125803 0.350228 0.418552
175 1 0.561539 0.490806 0.273869
176 2 0.556965 0.508898 0.297348
177 2 0.570873 0.483892 0.283628
178 1 0.333218 0.737209 0.534082
179 2 0.328899 0.762803 0.549854
180 2 0.332205 0.741131 0.501153
181 1 0.324893 0.42255 0.707837
182 2 0.316914 0.40643 0.695843
183 2 0.328726 0.442125 0.684075
184 1 0.775716 0.537745 0.313147
185 2 0.778525 0.533691 0.34488
186 2 0.771363 0.509807 0.302189
187 1 0.875422 0.337408 0.265482
188 2 0.87663 0.37045 0.263711
189 2 0.867059 0.328734 0.249396
190 1 0.30522 0.334088 0.538359
191 2 0.312077 0.328712 0.514699
192 2 0.304628 0.366757 0.544682
193 1 0.878558 0.439066 0.261121
194 2 0.869414 0.445739 0.27285
195 2 0.88331 0.467629 0.254465
196 1 0.20919 0.531121 0.746501
197 2 0.219152 0.528676 0.748054
198 2 0.205993 0.519268 0.717226
199 1 0.235645 0.523442 0.735013
200 2 0.238914 0.520645 0.703635
201 2 0.243002 0.515269 0.75606
202 1 0.192497 0.40127 0.641215
203 2 0.18506 0.403393 0.619031
204 2 0.188862 0.406006 0.671904
205 1 0.57554 0.476394 0.357848
206 2 0.569121 0.497451 0.37234
207 2 0.570885 0.447667 0.351129
208 1 0.79049 0.176054 0.1775
209 2 0.795204 0.155298 0.198319
210 2 0.783245 0.192103 0.193938
211 1 0.531327 0.771119 0.790799
212 2 0.525501 0.75303 0.810967
213 2 0.533877 0.752858 0.76424
214 1 0.297229 0.588491 0.263659
215 2 0.29172 0.566421 0.280595
216 2 0.305317 0.573315 0.251248
217 1 0.203499 0.457526 0.795936
218 2 0.197485 0.470268 0.81932
219 2 0.205892 0.481304 0.77398
220 1 0.821952 0.638734 0.495175
221 2 0.820425 0.639932 0.462255
222 2 0.814351 0.622725 0.509761
223 1 0.175217 0.432522 0.575992
224 2 0.184348 0.445989 0.577839
225 2 0.168439 0.456663 0.571772
226 1 0.305223 0.600919 0.0657058
227 2 0.304961 0.578864 0.0407275
228 2 0.310522 0.58834 0.0910217
229 1 0.799365 0.683027 0.678854
230 2 0.78943 0.683769 0.675122
231 2 0.80375 0.691006 0.649978
232 1 0.500946 0.846611 0.909252
233 2 0.504481 0.866318 0.885087
234 2 0.496302 0.865197 0.932187
235 1 0.264278 0.453086 0.226465
236 2 0.254383 0.454107 0.221748
237 2 0.268893 0.467157 0.200457
238 1 0.146356 0.385269 0.449235
239 2 0.146237 0.358082 0.429951
240 2 0.154303 0.384174 0.469438
241 1 0.0146166 0.251514 0.224098
242 2 0.010167 0.235241 0.249123
243 2 0.0236439 0.238296 0.218537
244 1 0.248576 0.151992 0.862075
245 2 0.257388 0.159428 0.875964
246 2 0.241378 0.170126 0.876446
247 1 0.398748 0.7101 0.135102
248 2 0.403137 0.718981 0.163706
249 2 0.404215 0.721058 0.109432
250 1 0.842689 0.435052 0.376652
251 2 0.835222 0.427603 0.397535
252 2 0.850636 0.416093 0.383727
253 1 0.222757 0.488238 0.635289
254 2 0.221428 0.45699 0.646015
255 2 0.232511 0.495577 0.635568
256 1 0.51254 0.735927 0.843667
257 2 0.516253 0.75463 0.868326
258 2 0.502618 0.733527 0.84707
259 1 0.357952 0.153957 0.312484
260 2 0.367839 0.149664 0.315048
261 2 0.354939 0.144928 0.282009
262 1 0.0319171 0.0842048 0.777865
263 2 0.0272577 0.096675 0.751137
264 2 0.0280673 0.0543387 0.785243
265 1 0.785932 0.130285 0.260082
266 2 0.776148 0.131085 0.253235
267 2 0.789491 0.0997149 0.254094
268 1 0.610787 0.448442 0.0901524
269 2 0.603442 0.451179 0.112608
270 2 0.61203 0.477643 0.0746197
271 1 0.816734 0.702842 0.606719
272 2 0.821673 0.711375 0.634419
273 2 0.821388 0.677269 0.592007
274 1 0.887346 0.364972 0.414338
275 2 0.894957 0.344926 0.406238
276 2 0.889814 0.39657 0.407629
277 1 0.859898 0.360519 0.38631
278 2 0.858756 0.342619 0.358449
279 2 0.869623 0.362712 0.393764
280 1 0.357763 0.694214 0.503964
281 2 0.365251 0.685275 0.52417
282 2 0.350178 0.706119 0.522132
283 1 0.325996 0.509978 0.652103
284 2 0.327148 0.530195 0.678327
285 2 0.316899 0.514422 0.638993
286 1 0.997848 0.367566 0.0865295
287 2 0.990043 0.347952 0.0935697
288 2 0.995883 0.385273 0.0590581
289 1 0.328347 0.677609 0.228041
290 2 0.330666 0.70772 0.216016
291 2 0.318608 0.671735 0.223259
292 1 0.135677 0.39912 0.53574
293 2 0.13695 0.368944 0.549248
294 2 0.136982 0.397236 0.502746
295 1 0.19948 0.47273 0.579909
296 2 0.198626 0.462857 0.611619
297 2 0.208124 0.488996 0.57588
298 1 0.288311 0.469706 0.28722
299 2 0.281116 0.457372 0.267628
300 2 0.288975 0.451361 0.314963
ITEM: TIMESTEP
6000
ITEM: NUMBER OF ATOMS
300
ITEM: BOX BOUNDS pp ff pp
0.0000000000000000e+00 1.0000000000000000e+02
0.0000000000000000e+00 3.0000000000000000e+01
0.0000000000000000e+00 3.0000000000000000e+01
ITEM: ATOMS id type xs ys zs
1 1 0.397757 0.63674 0.0615254
2 2 0.399687 0.65133 0.0907972
3 2 0.393275 0.607408 0.0667773
4 1 0.58904 0.470301 0.124809
5 2 0.580085 0.455518 0.126097
6 2 0.588962 0.497548 0.144009
7 1 0.0214427 0.32512 0.0711195
8 2 0.026892 0.34374 0.0502759
9 2 0.012034 0.3364 0.071634
10 1 0.548027 0.501923 0.368513
11 2 0.539959 0.520973 0.37351
12 2 0.545345 0.469811 0.368707
13 1 0.90792 0.42402 0.368649
14 2 0.90509 0.413176 0.338573
15 2 0.914219 0.449669 0.36513
16 1 0.280043 0.463072 0.74362
17 2 0.280666 0.472548 0.711729
18 2 0.288867 0.46784 0.758564
19 1 0.332694 0.210418 0.383619
20 2 0.340167 0.1916 0.371934
21 2 0.330641 0.234622 0.361746
22 1 0.131146 0.4385 0.419185
23 2 0.129958 0.448023 0.450883
24 2 0.139147 0.418645 0.416798
25 1 0.322304 0.707659 0.437918
26 2 0.317401 0.724254 0.414072
27 2 0.332153 0.711583 0.433678
28 1 0.565993 0.380461 0.346004
29 2 0.560713 0.368778 0.320219
30 2 0.575359 0.368914 0.344288
31 1 0.591343 0.355849 0.31395
32 2 0.600798 0.352123 0.324146
33 2 0.591228 0.37152 0.284532
34 1 0.150371 0.480008 0.599296
35 2 0.144263 0.486123 0.624972
36 2 0.145094 0.479776 0.570982
37 1 0.309753 0.467924 0.768107
38 2 0.314622 0.458984 0.795816
39 2 0.314251 0.45439 0.741591
40 1 0.323581 0.31465 0.464037
41 2 0.318025 0.300909 0.439969
42 2 0.332569 0.322641 0.451806
43 1 0.150389 0.293181 0.381115
44 2 0.143292 0.302806 0.359695
45 2 0.15053 0.259901 0.382932
46 1 0.54067 0.407192 0.385164
47 2 0.539201 0.3853 0.409819
48 2 0.549826 0.402958 0.372448
49 1 0.587284 0.486429 0.271793
50 2 0.591654 0.463295 0.252723
51 2 0.586174 0.4746 0.302737
52 1 0.834208 0.654246 0.589527
53 2 0.830692 0.648269 0.558899
54 2 0.843887 0.645976 0.590888
55 1 0.657027 0.861932 0.745702
56 2 0.662233 0.889411 0.753111
57 2 0.652766 0.865497 0.715758
58 1 0.268621 0.588698 0.717119
59 2 0.265823 0.610719 0.74034
60 2 0.260808 0.569634 0.708789
61 1 0.261027 0.161553 0.761809
62 2 0.255841 0.154413 0.7894
63 2 0.258893 0.139186 0.738141
64 1 0.317025 0.42382 0.613463
65 2 0.319385 0.456211 0.613491
66 2 0.318398 0.411301 0.582911
67 1 0.322005 0.557048 0.233357
68 2 0.328 0.535967 0.217007
69 2 0.327552 0.579247 0.249985
70 1 0.895198 0.404616 0.286283
71 2 0.888222 0.420942 0.268852
72 2 0.89467 0.372053 0.279378
73 1 0.998154 0.304584 0.17274
74 2 0.00172839 0.275186 0.18298
75 2 0.00569956 0.32619 0.169333
76 1 0.806269 0.611817 0.600204
77 2 0.815664 0.62313 0.601752
78 2 0.800312 0.631574 0.618274
79 1 0.267607 0.222354 0.833303
80 2 0.273103 0.249642 0.827751
81 2 0.267121 0.204193 0.805398
82 1 0.618143 0.376624 0.180878
83 2 0.617386 0.353787 0.156729
84 2 0.618536 0.407043 0.16731
85 1 0.254007 0.484735 0.653025
86 2 0.248108 0.458251 0.648221
87 2 0.26349 0.474664 0.656257
88 1 0.515158 0.784809 0.882693
89 2 0.523132 0.801084 0.870876
90 2 0.510491 0.80382 0.905226
91 1 0.333299 0.610809 0.29756
92 2 0.327359 0.614206 0.32416
93 2 0.336304 0.640884 0.287251
94 1 0.517637 0.900974 0.868184
95 2 0.523794 0.876058 0.859876
96 2 0.512879 0.911853 0.840958
97 1 0.593349 0.402572 0.228634
98 2 0.584898 0.414631 0.215515
99 2 0.600442 0.401555 0.20516
100 1 0.169816 0.383499 0.511626
101 2 0.167908 0.383972 0.544343
102 2 0.178435 0.399319 0.505663
103 1 0.293706 0.536301 0.600466
104 2 0.292736 0.540326 0.567535
105 2 0.285978 0.550664 0.615997
106 1 0.282549 0.466471 0.652991
107 2 0.287733 0.482555 0.629458
108 2 0.285369 0.434499 0.653776
109 1 0.220139 0.426077 0.66548
110 2 0.213137 0.403235 0.658799
111 2 0.216054 0.45117 0.682687
112 1 0.308829 0.658512 0.220436
113 2 0.302617 0.665995 0.19541
114 2 0.305435 0.631619 0.236555
115 1 0.531774 0.833088 0.820243
116 2 0.541522 0.835047 0.813062
117 2 0.527454 0.810441 0.800473
118 1 0.293864 0.647561 0.142655
119 2 0.294097 0.649493 0.109387
120 2 0.296666 0.617029 0.152232
121 1 0.974684 0.278897 0.112057
122 2 0.983466 0.275636 0.127666
123 2 0.967692 0.288214 0.133988
124 1 0.12872 0.301493 0.33267
125 2 0.123495 0.30079 0.304257
126 2 0.123789 0.319591 0.35533
127 1 0.797908 0.590193 0.518308
128 2 0.801571 0.592132 0.549263
129 2 0.790907 0.566423 0.517038
130 1 0.592909 0.525546 0.191366
131 2 0.602813 0.530101 0.192058
132 2 0.58938 0.524753 0.222545
133 1 0.185907 0.399531 0.759121
134 2 0.186 0.394026 0.791995
135 2 0.1943 0.415324 0.750237
136 1 0.258786 0.518876 0.790461
137 2 0.264304 0.5034 0.767369
138 2 0.264366 0.524506 0.817542
139 1 0.414617 0.711525 0.0356475
140 2 0.406112 0.695402 0.028772
141 2 0.422213 0.696726 0.0198043
142 1 0.323196 0.613907 0.138413
143 2 0.320743 0.603858 0.169126
144 2 0.325236 0.646537 0.138842
145 1 0.295604 0.377442 0.658231
146 2 0.304285 0.378473 0.641719
147 2 0.290538 0.350106 0.649357
148 1 0.31047 0.277589 0.397929
149 2 0.302947 0.273003 0.376454
150 2 0.311801 0.249876 0.415913
151 1 0.854848 0.494167 0.317044
152 2 0.858685 0.519206 0.334948
153 2 0.849949 0.473274 0.337243
154 1 0.347975 0.725412 0.415119
155 2 0.352985 0.719656 0.386852
156 2 0.354171 0.722187 0.441082
157 1 0.853947 0.83813 0.439792
158 2 0.860672 0.856495 0.456263
159 2 0.853774 0.807305 0.452463
160 1 0.775905 0.136893 0.163044
161 2 0.766218 0.144761 0.165588
162 2 0.781244 0.164576 0.157749
163 1 0.569676 0.42762 0.201247
164 2 0.564781 0.454409 0.212526
165 2 0.563503 0.401398 0.200922
166 1 0.309043 0.189926 0.428087
167 2 0.316852 0.196832 0.408443
168 2 0.311808 0.16801 0.45145
169 1 0.0165789 0.376508 0.156536
170 2 0.0126237 0.381546 0.126339
171 2 0.0242464 0.355249 0.154095
172 1 0.118327 0.358102 0.405679
173 2 0.118099 0.391423 0.405202
174 2 0.125018 0.34782 0.428216
175 1 0.559461 0.483837 0.279863
176 2 0.556594 0.498622 0.308169
177 2 0.569444 0.48219 0.278873
178 1 0.336273 0.717443 0.540925
179 2 0.330177 0.714344 0.567167
180 2 0.331461 0.707985 0.513277
181 1 0.319291 0.410356 0.699643
182 2 0.31205 0.390732 0.687665
183 2 0.32478 0.422136 0.674394
184 1 0.780348 0.522345 0.343129
185 2 0.779458 0.49445 0.325124
186 2 0.772527 0.542243 0.337168
187 1 0.875726 0.340355 0.268442
188 2 0.87229 0.371512 0.271474
189 2 0.869498 0.322707 0.249241
190 1 0.311146 0.372853 0.5304
191 2 0.302602 0.3806 0.514906
192 2 0.316544 0.352521 0.511062
193 1 0.867755 0.438103 0.259631
194 2 0.864443 0.456898 0.28485
195 2 0.864725 0.45126 0.230718
196 1 0.215371 0.529751 0.734307
197 2 0.224993 0.538514 0.731957
198 2 0.209692 0.557152 0.735725
199 1 0.244173 0.538553 0.717236
200 2 0.246635 0.516993 0.693174
201 2 0.248137 0.5285 0.746141
202 1 0.193416 0.392035 0.655479
203 2 0.185815 0.402036 0.636266
204 2 0.190772 0.39428 0.687548
205 1 0.57745 0.466588 0.359695
206 2 0.572041 0.484873 0.380947
207 2 0.573995 0.43531 0.359408
208 1 0.797246 0.182332 0.206015
209 2 0.797918 0.150664 0.216175
210 2 0.806386 0.195801 0.204825
211 1 0.523633 0.763408 0.766034
212 2 0.519865 0.737927 0.783473
213 2 0.51934 0.764405 0.735946
214 1 0.296014 0.567391 0.251736
215 2 0.291146 0.543058 0.267724
216 2 0.305637 0.558981 0.248332
217 1 0.207936 0.444258 0.740859
218 2 0.216704 0.428788 0.736671
219 2 0.209462 0.477095 0.743504
220 1 0.821996 0.63086 0.504642
221 2 0.82282 0.636512 0.471907
222 2 0.812698 0.620761 0.511609
223 1 0.173034 0.43676 0.602057
224 2 0.180752 0.450312 0.58576
225 2 0.1653 0.457887 0.601655
226 1 0.308448 0.624723 0.0609137
227 2 0.314268 0.614569 0.035782
228 2 0.31206 0.612972 0.0896909
229 1 0.802144 0.68496 0.654854
230 2 0.796159 0.700253 0.676746
231 2 0.808676 0.706929 0.642432
232 1 0.499328 0.851366 0.920041
233 2 0.503846 0.87637 0.903942
234 2 0.493273 0.863799 0.943475
235 1 0.268045 0.456713 0.211106
236 2 0.258294 0.449928 0.208172
237 2 0.273147 0.43985 0.187921
238 1 0.147311 0.352593 0.445032
239 2 0.149027 0.328809 0.42239
240 2 0.155513 0.357107 0.463557
241 1 0.01209 0.21837 0.208996
242 2 0.0108991 0.185492 0.205207
243 2 0.0188957 0.224161 0.232722
244 1 0.248413 0.15439 0.847925
245 2 0.254052 0.181883 0.846557
246 2 0.250228 0.138198 0.876426
247 1 0.405272 0.697072 0.133201
248 2 0.409859 0.708175 0.160662
249 2 0.408012 0.715687 0.107102
250 1 0.84962 0.412843 0.358524
251 2 0.840872 0.406352 0.34374
252 2 0.853878 0.384253 0.368133
253 1 0.220965 0.499832 0.612268
254 2 0.22366 0.474708 0.632248
255 2 0.226162 0.527154 0.620301
256 1 0.510144 0.713008 0.826609
257 2 0.51038 0.741598 0.84373
258 2 0.504709 0.690554 0.843305
259 1 0.347669 0.146224 0.337901
260 2 0.352992 0.118079 0.339953
261 2 0.340159 0.142025 0.316297
262 1 0.0327605 0.0778734 0.782919
263 2 0.0258688 0.0839896 0.759553
264 2 0.0287929 0.0829322 0.813096
265 1 0.79012 0.0833993 0.226976
266 2 0.785856 0.0942792 0.198855
267 2 0.78399 0.0618689 0.242143
268 1 0.614637 0.445748 0.12966
269 2 0.604984 0.453717 0.133159
270 2 0.618787 0.465313 0.106488
271 1 0.815043 0.762002 0.621865
272 2 0.821747 0.765903 0.597441
273 2 0.818562 0.775624 0.649936
274 1 0.88535 0.376294 0.394346
275 2 0.883684 0.392846 0.422741
276 2 0.893123 0.389941 0.378418
277 1 0.864888 0.3323 0.376823
278 2 0.868769 0.317683 0.349802
279 2 0.872257 0.345158 0.395331
280 1 0.360349 0.713605 0.496322
281 2 0.367101 0.71981 0.520113
282 2 0.35189 0.702612 0.510298
283 1 0.320071 0.511841 0.62138
284 2 0.327042 0.533192 0.632113
285 2 0.310988 0.524347 0.62755
286 1 0.995025 0.353378 0.0890081
287 2 0.99232 0.349584 0.120874
288 2 0.987402 0.344869 0.0691833
289 1 0.333819 0.697578 0.235989
290 2 0.336097 0.70555 0.204525
291 2 0.324394 0.686532 0.237381
292 1 0.129394 0.418728 0.522005
293 2 0.120976 0.4134 0.539194
294 2 0.131509 0.391824 0.503632
295 1 0.200032 0.441512 0.571124
296 2 0.198503 0.430452 0.602153
297 2 0.208044 0.461454 0.570684
298 1 0.276064 0.493215 0.296681
299 2 0.275188 0.47297 0.270361
300 2 0.267509 0.509901 0.301082
ITEM: TIMESTEP
6100
ITEM: NUMBER OF ATOMS
300
ITEM: BOX BOUNDS pp ff pp
0.0000000000000000e+00 1.0000000000000000e+02
0.0000000000000000e+00 3.0000000000000000e+01
0.0000000000000000e+00 3.0000000000000000e+01
ITEM: ATOMS id type xs ys zs
1 1 0.401971 0.648949 0.0499449
2 2 0.399852 0.662889 0.0793879
3 2 0.395812 0.623234 0.0446159
4 1 0.58775 0.458442 0.147599
5 2 0.577846 0.454227 0.145743
6 2 0.589754 0.487101 0.163255
7 1 0.0270874 0.366583 0.0637171
8 2 0.0310296 0.392162 0.0468594
9 2 0.0171233 0.367387 0.061016
10 1 0.550389 0.489535 0.341649
11 2 0.546273 0.514861 0.358427
12 2 0.54859 0.460982 0.357769
13 1 0.90799 0.398408 0.349371
14 2 0.90252 0.410206 0.324084
15 2 0.91728 0.392132 0.338759
16 1 0.28701 0.492649 0.753948
17 2 0.280743 0.475252 0.73466
18 2 0.2948 0.47349 0.762305
19 1 0.334662 0.186759 0.424378
20 2 0.339506 0.164047 0.406088
21 2 0.34112 0.201885 0.444847
22 1 0.133694 0.433691 0.420947
23 2 0.135765 0.460107 0.440069
24 2 0.13768 0.40633 0.434581
25 1 0.32535 0.685963 0.451409
26 2 0.316391 0.687177 0.436653
27 2 0.332087 0.701567 0.432344
28 1 0.563635 0.382128 0.344866
29 2 0.562575 0.399126 0.316411
30 2 0.573312 0.375342 0.349822
31 1 0.590324 0.382624 0.336018
32 2 0.598354 0.38554 0.355669
33 2 0.59309 0.385788 0.304142
34 1 0.157042 0.4506 0.594832
35 2 0.151217 0.445211 0.621386
36 2 0.152444 0.471564 0.573934
37 1 0.310156 0.456127 0.780227
38 2 0.316653 0.454262 0.805496
39 2 0.314334 0.443501 0.752701
40 1 0.319276 0.326392 0.48105
41 2 0.312036 0.315275 0.501178
42 2 0.319925 0.3066 0.454315
43 1 0.150525 0.322777 0.369235
44 2 0.144193 0.306993 0.348827
45 2 0.156583 0.34236 0.351351
46 1 0.541744 0.427979 0.395881
47 2 0.539933 0.432807 0.428306
48 2 0.541007 0.395491 0.388839
49 1 0.592794 0.483433 0.277081
50 2 0.596644 0.453468 0.270113
51 2 0.587939 0.482093 0.306191
52 1 0.837835 0.662542 0.562216
53 2 0.834685 0.643375 0.537046
54 2 0.837822 0.694469 0.552635
55 1 0.660113 0.844623 0.765695
56 2 0.650943 0.857501 0.769008
57 2 0.663353 0.849517 0.734542
58 1 0.279918 0.555905 0.691794
59 2 0.284873 0.540315 0.716191
60 2 0.270931 0.565361 0.702939
61 1 0.265781 0.146482 0.774872
62 2 0.258475 0.143961 0.797492
63 2 0.268274 0.116067 0.764056
64 1 0.316224 0.407533 0.601826
65 2 0.312566 0.438556 0.60194
66 2 0.317847 0.397836 0.570397
67 1 0.324305 0.538691 0.255187
68 2 0.32692 0.53472 0.22326
69 2 0.329045 0.565191 0.267805
70 1 0.893317 0.428655 0.280243
71 2 0.886715 0.453476 0.276972
72 2 0.889837 0.401427 0.264908
73 1 0.998818 0.284855 0.154988
74 2 0.00109981 0.255383 0.168577
75 2 0.00576747 0.30729 0.163428
76 1 0.803938 0.630044 0.597497
77 2 0.813765 0.632457 0.603176
78 2 0.799062 0.651839 0.616781
79 1 0.257187 0.230983 0.799819
80 2 0.26352 0.256089 0.793887
81 2 0.261715 0.201993 0.793273
82 1 0.619177 0.360011 0.190137
83 2 0.612152 0.338098 0.181046
84 2 0.6186 0.387028 0.170707
85 1 0.249892 0.463051 0.663773
86 2 0.246232 0.455146 0.633776
87 2 0.259835 0.466023 0.661858
88 1 0.500704 0.770161 0.859523
89 2 0.50957 0.782217 0.849911
90 2 0.496697 0.790412 0.882383
91 1 0.336202 0.611652 0.282188
92 2 0.330827 0.611187 0.310293
93 2 0.336306 0.642573 0.269743
94 1 0.524486 0.869683 0.902905
95 2 0.524911 0.841786 0.884717
96 2 0.533285 0.885446 0.901377
97 1 0.59672 0.402617 0.229229
98 2 0.59388 0.425026 0.20644
99 2 0.60616 0.393358 0.223303
100 1 0.161716 0.359056 0.521395
101 2 0.164915 0.378127 0.546569
102 2 0.165988 0.328986 0.523434
103 1 0.285362 0.549531 0.61014
104 2 0.280412 0.575183 0.596691
105 2 0.281317 0.541894 0.639652
106 1 0.278408 0.453009 0.645805
107 2 0.280214 0.476015 0.622446
108 2 0.285516 0.429588 0.644697
109 1 0.219178 0.429404 0.634852
110 2 0.210617 0.412698 0.639061
111 2 0.223391 0.435063 0.664548
112 1 0.308905 0.643503 0.207203
113 2 0.301742 0.651756 0.185457
114 2 0.30534 0.621007 0.228741
115 1 0.526473 0.803494 0.835858
116 2 0.53194 0.77751 0.846051
117 2 0.522984 0.797558 0.805189
118 1 0.29233 0.691078 0.142774
119 2 0.296256 0.690512 0.112122
120 2 0.290346 0.722575 0.151451
121 1 0.970578 0.274234 0.113959
122 2 0.979144 0.285696 0.126789
123 2 0.970612 0.240908 0.114618
124 1 0.127117 0.29361 0.334761
125 2 0.120046 0.2745 0.320966
126 2 0.123006 0.313012 0.358146
127 1 0.80117 0.598822 0.509334
128 2 0.80186 0.601202 0.542503
129 2 0.792502 0.612016 0.499224
130 1 0.594482 0.533692 0.201961
131 2 0.603614 0.546745 0.205728
132 2 0.592092 0.516065 0.229108
133 1 0.186838 0.423391 0.756985
134 2 0.181003 0.421482 0.783987
135 2 0.195158 0.440317 0.764442
136 1 0.259601 0.509263 0.809151
137 2 0.268694 0.508514 0.795305
138 2 0.260336 0.50226 0.841648
139 1 0.418212 0.72437 0.0544344
140 2 0.411611 0.700543 0.0467341
141 2 0.424253 0.729728 0.0284162
142 1 0.33001 0.632239 0.143291
143 2 0.338545 0.623727 0.158431
144 2 0.322933 0.637669 0.166208
145 1 0.294742 0.37607 0.640284
146 2 0.30357 0.380288 0.625206
147 2 0.292542 0.343574 0.641449
148 1 0.305587 0.299085 0.396717
149 2 0.297532 0.318804 0.397925
150 2 0.304911 0.275782 0.420446
151 1 0.862914 0.479908 0.355099
152 2 0.871612 0.472445 0.369759
153 2 0.856395 0.455154 0.360211
154 1 0.344038 0.723849 0.398237
155 2 0.347397 0.719449 0.36715
156 2 0.351225 0.73771 0.416816
157 1 0.864757 0.816652 0.444533
158 2 0.855975 0.830706 0.437009
159 2 0.86397 0.800332 0.473479
160 1 0.773646 0.162294 0.205505
161 2 0.771743 0.175566 0.235417
162 2 0.783025 0.150747 0.204878
163 1 0.562857 0.430588 0.166243
164 2 0.560781 0.429335 0.198826
165 2 0.562447 0.399856 0.153405
166 1 0.310676 0.22601 0.454645
167 2 0.318191 0.211121 0.438464
168 2 0.304154 0.202988 0.465059
169 1 0.0229566 0.344585 0.155111
170 2 0.0292454 0.367602 0.167023
171 2 0.025337 0.337634 0.123491
172 1 0.118926 0.350103 0.409163
173 2 0.119764 0.382359 0.401233
174 2 0.126471 0.341375 0.429225
175 1 0.559085 0.429623 0.259769
176 2 0.554502 0.455899 0.273453
177 2 0.568784 0.436538 0.255524
178 1 0.343176 0.682159 0.533872
179 2 0.342878 0.66132 0.55987
180 2 0.336542 0.672368 0.510933
181 1 0.318059 0.422777 0.703462
182 2 0.312019 0.422033 0.676907
183 2 0.327485 0.41735 0.69374
184 1 0.772542 0.51029 0.361905
185 2 0.78241 0.514653 0.365072
186 2 0.770777 0.483238 0.34334
187 1 0.875469 0.363172 0.252327
188 2 0.868225 0.386008 0.254881
189 2 0.873859 0.344293 0.225384
190 1 0.31913 0.41722 0.499554
191 2 0.313656 0.433409 0.476837
192 2 0.319711 0.384977 0.491324
193 1 0.861661 0.453322 0.266845
194 2 0.86305 0.468735 0.296036
195 2 0.856574 0.47334 0.246279
196 1 0.214028 0.538188 0.723606
197 2 0.223338 0.544335 0.734101
198 2 0.208861 0.566708 0.722543
199 1 0.246991 0.534381 0.722124
200 2 0.246654 0.511196 0.698201
201 2 0.246719 0.51959 0.751982
202 1 0.194803 0.384181 0.663599
203 2 0.187726 0.384141 0.640047
204 2 0.1905 0.384696 0.693685
205 1 0.576021 0.483526 0.352356
206 2 0.567134 0.489249 0.338186
207 2 0.57532 0.457286 0.372779
208 1 0.801732 0.152769 0.231736
209 2 0.800868 0.119738 0.228304
210 2 0.809882 0.163296 0.215541
211 1 0.515799 0.77979 0.747761
212 2 0.516637 0.747824 0.756787
213 2 0.506233 0.786651 0.740891
214 1 0.29948 0.578991 0.266437
215 2 0.292007 0.556844 0.266933
216 2 0.308057 0.563731 0.274232
217 1 0.206887 0.473721 0.795222
218 2 0.214103 0.450694 0.796753
219 2 0.208161 0.492425 0.767959
220 1 0.827345 0.620885 0.49257
221 2 0.832053 0.605005 0.467819
222 2 0.818314 0.607318 0.497147
223 1 0.179346 0.401221 0.595149
224 2 0.186748 0.421657 0.585944
225 2 0.171181 0.419132 0.602191
226 1 0.311414 0.621518 0.0800653
227 2 0.314962 0.606919 0.0525321
228 2 0.318859 0.625816 0.101899
229 1 0.793266 0.699053 0.644039
230 2 0.784829 0.708081 0.659488
231 2 0.799888 0.723978 0.64568
232 1 0.500033 0.84043 0.924706
233 2 0.509489 0.848842 0.917859
234 2 0.494735 0.867927 0.931271
235 1 0.268403 0.442516 0.215259
236 2 0.274835 0.43769 0.190197
237 2 0.259042 0.441024 0.20363
238 1 0.143917 0.356649 0.453904
239 2 0.14744 0.342309 0.4262
240 2 0.150635 0.353507 0.478392
241 1 0.00610243 0.204151 0.186848
242 2 0.0132709 0.18993 0.205231
243 2 0.998639 0.182446 0.182248
244 1 0.243254 0.160279 0.836019
245 2 0.245249 0.19085 0.824515
246 2 0.23399 0.159597 0.848552
247 1 0.405507 0.694101 0.138328
248 2 0.403295 0.723686 0.151798
249 2 0.413028 0.697699 0.116656
250 1 0.84534 0.404382 0.372347
251 2 0.840335 0.399804 0.40084
252 2 0.850152 0.376312 0.364231
253 1 0.230647 0.491064 0.578809
254 2 0.227765 0.464444 0.596423
255 2 0.228822 0.518762 0.596329
256 1 0.512034 0.704888 0.812226
257 2 0.505323 0.719289 0.83231
258 2 0.51178 0.671846 0.816536
259 1 0.339705 0.129027 0.348518
260 2 0.344024 0.110896 0.324536
261 2 0.330586 0.138445 0.338592
262 1 0.0335925 0.0688172 0.785995
263 2 0.0256024 0.0688102 0.76595
264 2 0.031063 0.0814427 0.81567
265 1 0.789506 0.0723842 0.177522
266 2 0.783461 0.0914503 0.159042
267 2 0.786472 0.040665 0.175864
268 1 0.613901 0.439591 0.138587
269 2 0.603935 0.437419 0.136899
270 2 0.617288 0.457475 0.112822
271 1 0.814534 0.757483 0.643371
272 2 0.819304 0.786759 0.642257
273 2 0.819399 0.735307 0.624494
274 1 0.891191 0.396477 0.421645
275 2 0.898301 0.39955 0.444881
276 2 0.89511 0.402539 0.391582
277 1 0.867199 0.333943 0.344382
278 2 0.86953 0.341648 0.312897
279 2 0.875557 0.332264 0.362609
280 1 0.357724 0.749869 0.475804
281 2 0.357446 0.778649 0.492595
282 2 0.354492 0.72519 0.495451
283 1 0.305952 0.487544 0.599452
284 2 0.30261 0.503722 0.57252
285 2 0.301156 0.498672 0.626501
286 1 0.990816 0.323517 0.0658151
287 2 0.995168 0.310975 0.0930789
288 2 0.981058 0.316236 0.0661911
289 1 0.327176 0.700011 0.243839
290 2 0.324024 0.731595 0.245617
291 2 0.320638 0.682032 0.226149
292 1 0.126963 0.429539 0.545255
293 2 0.119827 0.424115 0.522544
294 2 0.13333 0.403835 0.545473
295 1 0.199413 0.458062 0.576861
296 2 0.203499 0.45404 0.607018
297 2 0.206305 0.469834 0.555773
298 1 0.280233 0.518818 0.265212
299 2 0.271369 0.516349 0.249981
300 2 0.28484 0.489241 0.264531
ITEM: TIMESTEP
6200
ITEM: NUMBER OF ATOMS
300
ITEM: BOX BOUNDS pp ff pp
0.0000000000000000e+00 1.0000000000000000e+02
0.0000000000000000e+00 3.0000000000000000e+01
0.0000000000000000e+00 3.0000000000000000e+01
ITEM: ATOMS id type xs ys zs
1 1 0.405182 0.665253 0.043033
2 2 0.398768 0.680308 0.0637053
3 2 0.401236 0.636514 0.032443
4 1 0.586551 0.451606 0.175323
5 2 0.576578 0.451248 0.172889
6 2 0.589664 0.482738 0.181168
7 1 0.0144466 0.389105 0.0838014
8 2 0.00542482 0.375851 0.0782235
9 2 0.0201594 0.385238 0.0567176
10 1 0.550137 0.474693 0.297385
11 2 0.546943 0.506167 0.300059
12 2 0.545992 0.45621 0.321439
13 1 0.906044 0.377764 0.337946
14 2 0.900226 0.398928 0.321002
15 2 0.909249 0.353694 0.317511
16 1 0.286453 0.451287 0.746278
17 2 0.286897 0.463976 0.715489
18 2 0.295144 0.456595 0.761886
19 1 0.32939 0.170277 0.458504
20 2 0.330626 0.162238 0.426418
21 2 0.328512 0.142462 0.476639
22 1 0.126109 0.437286 0.441385
23 2 0.128132 0.465819 0.425527
24 2 0.134626 0.420804 0.447159
25 1 0.330881 0.668233 0.434321
26 2 0.321286 0.659914 0.429965
27 2 0.33278 0.696787 0.418329
28 1 0.557729 0.380069 0.33252
29 2 0.554941 0.362593 0.305699
30 2 0.567648 0.384294 0.332118
31 1 0.585671 0.37888 0.34599
32 2 0.592235 0.375733 0.37094
33 2 0.590497 0.377291 0.316839
34 1 0.158584 0.412964 0.608548
35 2 0.155741 0.429913 0.635642
36 2 0.151142 0.412838 0.586283
37 1 0.311262 0.468748 0.783439
38 2 0.319458 0.477216 0.800559
39 2 0.313817 0.448938 0.758019
40 1 0.313412 0.351163 0.492529
41 2 0.318809 0.3281 0.508519
42 2 0.309592 0.337983 0.464685
43 1 0.152159 0.351921 0.387909
44 2 0.14663 0.326487 0.37675
45 2 0.155668 0.369366 0.362024
46 1 0.549963 0.441056 0.392991
47 2 0.551158 0.433661 0.425249
48 2 0.552194 0.414358 0.374471
49 1 0.595988 0.497362 0.280636
50 2 0.600529 0.467664 0.280566
51 2 0.587693 0.495696 0.299175
52 1 0.832142 0.695643 0.566631
53 2 0.830718 0.674936 0.540944
54 2 0.841949 0.699681 0.571752
55 1 0.662108 0.828736 0.785122
56 2 0.659705 0.800791 0.768812
57 2 0.670228 0.842345 0.77122
58 1 0.265333 0.558364 0.688955
59 2 0.272217 0.547783 0.710696
60 2 0.256217 0.554481 0.7021
61 1 0.26388 0.172024 0.796513
62 2 0.254546 0.164692 0.805965
63 2 0.269154 0.143879 0.793371
64 1 0.317296 0.407121 0.59381
65 2 0.315944 0.437743 0.606184
66 2 0.319964 0.409287 0.561759
67 1 0.322985 0.534516 0.280745
68 2 0.32994 0.516829 0.296893
69 2 0.326753 0.564216 0.272305
70 1 0.887309 0.431938 0.295811
71 2 0.88187 0.457797 0.306471
72 2 0.885194 0.425867 0.263802
73 1 0.00240165 0.269856 0.12527
74 2 0.00121901 0.242232 0.143504
75 2 0.0105009 0.286345 0.135776
76 1 0.803968 0.65045 0.564726
77 2 0.813025 0.664399 0.566971
78 2 0.796968 0.673357 0.571202
79 1 0.246579 0.23911 0.763555
80 2 0.248835 0.271134 0.768937
81 2 0.254141 0.219892 0.773867
82 1 0.620775 0.354125 0.204772
83 2 0.618517 0.33324 0.179907
84 2 0.620582 0.385493 0.193514
85 1 0.258477 0.455076 0.655375
86 2 0.255769 0.436467 0.629235
87 2 0.268251 0.461863 0.653461
88 1 0.49776 0.762028 0.859535
89 2 0.505963 0.775458 0.846007
90 2 0.496379 0.774581 0.89007
91 1 0.340518 0.608866 0.284231
92 2 0.350365 0.604005 0.281054
93 2 0.338061 0.638371 0.271058
94 1 0.527053 0.830483 0.920082
95 2 0.525245 0.81505 0.891157
96 2 0.536276 0.822922 0.930515
97 1 0.598044 0.3908 0.25552
98 2 0.593385 0.403362 0.228836
99 2 0.605669 0.371651 0.245592
100 1 0.161822 0.34468 0.533094
101 2 0.171282 0.348467 0.522976
102 2 0.161635 0.340394 0.566145
103 1 0.277233 0.556221 0.597331
104 2 0.286021 0.572005 0.599276
105 2 0.273142 0.554323 0.627688
106 1 0.286439 0.467721 0.650488
107 2 0.284638 0.481783 0.620868
108 2 0.289935 0.436821 0.645958
109 1 0.221976 0.425361 0.667908
110 2 0.212254 0.417851 0.67001
111 2 0.226775 0.413068 0.694443
112 1 0.305968 0.66364 0.209732
113 2 0.298435 0.673752 0.190281
114 2 0.30406 0.632926 0.221014
115 1 0.52672 0.783818 0.829123
116 2 0.532116 0.756385 0.823211
117 2 0.523546 0.796611 0.800217
118 1 0.288851 0.682028 0.125079
119 2 0.292785 0.66081 0.102968
120 2 0.288943 0.712863 0.11242
121 1 0.976621 0.281018 0.113447
122 2 0.986041 0.269838 0.113068
123 2 0.975221 0.300133 0.140354
124 1 0.131826 0.295954 0.35749
125 2 0.127191 0.266422 0.356937
126 2 0.12695 0.316612 0.37799
127 1 0.808693 0.594043 0.493197
128 2 0.806303 0.614205 0.518518
129 2 0.801135 0.593105 0.471391
130 1 0.591512 0.537314 0.201568
131 2 0.59647 0.564505 0.191636
132 2 0.5943 0.529371 0.232578
133 1 0.187851 0.445272 0.746215
134 2 0.179693 0.443718 0.765429
135 2 0.193711 0.470206 0.756601
136 1 0.264497 0.498181 0.789425
137 2 0.271374 0.478323 0.775595
138 2 0.264392 0.493446 0.822418
139 1 0.421598 0.7307 0.0895825
140 2 0.416136 0.710982 0.0698112
141 2 0.42618 0.753881 0.0711314
142 1 0.325912 0.639957 0.141249
143 2 0.333574 0.644459 0.162191
144 2 0.317399 0.648987 0.156229
145 1 0.296302 0.37677 0.648181
146 2 0.302764 0.379442 0.622884
147 2 0.294273 0.344593 0.653663
148 1 0.301167 0.297146 0.39556
149 2 0.300768 0.327571 0.38201
150 2 0.310587 0.290288 0.404406
151 1 0.868359 0.449494 0.379829
152 2 0.876602 0.434351 0.391093
153 2 0.860318 0.431502 0.388142
154 1 0.342141 0.742531 0.407385
155 2 0.3477 0.759444 0.385439
156 2 0.345907 0.746599 0.437995
157 1 0.872578 0.793846 0.450547
158 2 0.87142 0.76862 0.47199
159 2 0.880233 0.78727 0.430134
160 1 0.775023 0.141358 0.241535
161 2 0.768017 0.161061 0.254856
162 2 0.779791 0.124974 0.265828
163 1 0.559544 0.431578 0.164574
164 2 0.562672 0.424579 0.195451
165 2 0.554265 0.405881 0.152697
166 1 0.319237 0.258487 0.454626
167 2 0.326538 0.238321 0.465217
168 2 0.311374 0.240223 0.445112
169 1 0.0267486 0.316056 0.1454
170 2 0.0362252 0.312104 0.135518
171 2 0.0240844 0.347974 0.141725
172 1 0.118497 0.345534 0.411925
173 2 0.110247 0.363923 0.40784
174 2 0.122739 0.353035 0.441163
175 1 0.56927 0.425567 0.248944
176 2 0.561894 0.43444 0.269632
177 2 0.576794 0.447376 0.251493
178 1 0.349365 0.669958 0.499666
179 2 0.352056 0.639343 0.509328
180 2 0.341671 0.667853 0.478475
181 1 0.315279 0.44301 0.695792
182 2 0.307952 0.420654 0.69195
183 2 0.320574 0.44514 0.667595
184 1 0.76686 0.497134 0.383071
185 2 0.775456 0.498067 0.400076
186 2 0.768357 0.482178 0.353702
187 1 0.869422 0.404557 0.232031
188 2 0.866801 0.42686 0.255212
189 2 0.864317 0.410441 0.20398
190 1 0.326638 0.43054 0.515788
191 2 0.335986 0.434471 0.504627
192 2 0.321887 0.408127 0.496865
193 1 0.860527 0.474701 0.285065
194 2 0.862339 0.469111 0.317366
195 2 0.852643 0.494978 0.282023
196 1 0.218832 0.538816 0.743963
197 2 0.225573 0.514632 0.739339
198 2 0.222272 0.567275 0.730936
199 1 0.244513 0.505047 0.719174
200 2 0.246918 0.489495 0.690802
201 2 0.251722 0.500085 0.741736
202 1 0.19663 0.406045 0.670772
203 2 0.190147 0.386182 0.654973
204 2 0.192393 0.417999 0.698499
205 1 0.573768 0.490216 0.341636
206 2 0.565344 0.481858 0.325739
207 2 0.571788 0.495317 0.373909
208 1 0.806752 0.107107 0.236192
209 2 0.797768 0.108073 0.221582
210 2 0.813179 0.0907889 0.216549
211 1 0.514575 0.785868 0.744465
212 2 0.50962 0.757885 0.751904
213 2 0.508525 0.806596 0.727887
214 1 0.298947 0.582969 0.247614
215 2 0.290461 0.565525 0.245029
216 2 0.306167 0.563373 0.259776
217 1 0.206769 0.490934 0.798262
218 2 0.214449 0.481956 0.817631
219 2 0.210029 0.511312 0.774225
220 1 0.833787 0.631136 0.501741
221 2 0.839717 0.621103 0.476845
222 2 0.8243 0.623353 0.494646
223 1 0.182653 0.396618 0.549974
224 2 0.191354 0.410863 0.558157
225 2 0.175295 0.410204 0.568001
226 1 0.307418 0.619218 0.0764323
227 2 0.311141 0.593875 0.0586875
228 2 0.314786 0.633855 0.0935706
229 1 0.79064 0.710419 0.624207
230 2 0.782848 0.708158 0.644975
231 2 0.799084 0.713091 0.641866
232 1 0.500122 0.827816 0.933928
233 2 0.509976 0.832785 0.931197
234 2 0.495446 0.857233 0.935612
235 1 0.272914 0.431399 0.242109
236 2 0.277831 0.424526 0.270309
237 2 0.267068 0.405595 0.234012
238 1 0.146161 0.377846 0.471644
239 2 0.149646 0.369489 0.441539
240 2 0.151906 0.364028 0.49517
241 1 -0.000142038 0.188538 0.16384
242 2 0.993197 0.170102 0.180522
243 2 0.0091092 0.179573 0.172772
244 1 0.236257 0.1671 0.808582
245 2 0.238175 0.188358 0.783716
246 2 0.226597 0.169158 0.816956
247 1 0.403666 0.689886 0.135981
248 2 0.403706 0.67828 0.167228
249 2 0.411817 0.708526 0.130937
250 1 0.849755 0.380536 0.385302
251 2 0.847772 0.349183 0.394489
252 2 0.855424 0.380319 0.357845
253 1 0.234125 0.444721 0.590563
254 2 0.229378 0.433318 0.617596
255 2 0.236593 0.476694 0.595165
256 1 0.503599 0.707276 0.783643
257 2 0.500671 0.72239 0.811704
258 2 0.500293 0.675817 0.783557
259 1 0.330161 0.127522 0.37219
260 2 0.325013 0.115627 0.346205
261 2 0.336922 0.10496 0.381887
262 1 0.0344581 0.0593109 0.787522
263 2 0.0260284 0.0527845 0.77082
264 2 0.032233 0.0675269 0.818964
265 1 0.786835 0.11854 0.157189
266 2 0.780932 0.130939 0.181068
267 2 0.785731 0.136477 0.129335
268 1 0.611236 0.42489 0.142604
269 2 0.602833 0.433409 0.158541
270 2 0.609576 0.424712 0.109734
271 1 0.814599 0.731999 0.654444
272 2 0.822048 0.720789 0.635239
273 2 0.815672 0.764796 0.659208
274 1 0.888731 0.411512 0.411903
275 2 0.889514 0.436565 0.433736
276 2 0.89783 0.403184 0.400868
277 1 0.871949 0.355602 0.326122
278 2 0.867732 0.353351 0.295983
279 2 0.87996 0.375484 0.324469
280 1 0.353714 0.756858 0.490673
281 2 0.350742 0.769859 0.519724
282 2 0.354518 0.723766 0.493649
283 1 0.297425 0.476406 0.553456
284 2 0.300533 0.507514 0.547447
285 2 0.301266 0.455818 0.530581
286 1 0.995947 0.293787 0.039136
287 2 0.000395959 0.28234 0.0667071
288 2 0.986021 0.292018 0.0427664
289 1 0.330267 0.684201 0.258787
290 2 0.329778 0.716587 0.266509
291 2 0.321734 0.674825 0.244149
292 1 0.131979 0.428448 0.526465
293 2 0.125963 0.440728 0.502839
294 2 0.136727 0.40156 0.514731
295 1 0.203474 0.442804 0.57799
296 2 0.202273 0.446358 0.61089
297 2 0.213233 0.442499 0.570726
298 1 0.278625 0.520632 0.229042
299 2 0.277627 0.525076 0.196174
300 2 0.276749 0.488784 0.236637
ITEM: TIMESTEP
6300
ITEM: NUMBER OF ATOMS
300
ITEM: BOX BOUNDS pp ff pp
0.0000000000000000e+00 1.0000000000000000e+02
0.0000000000000000e+00 3.0000000000000000e+01
0.0000000000000000e+00 3.0000000000000000e+01
ITEM: ATOMS id type xs ys zs
1 1 0.402483 0.674644 0.0500107
2 2 0.396708 0.660819 0.073449
3 2 0.396958 0.681376 0.0230544
4 1 0.588949 0.468546 0.125289
5 2 0.580668 0.449959 0.127181
6 2 0.589536 0.488292 0.152073
7 1 0.00325418 0.367607 0.103323
8 2 0.994032 0.366423 0.116161
9 2 0.00464881 0.341447 0.0831939
10 1 0.543263 0.485757 0.296217
11 2 0.534855 0.5038 0.296461
12 2 0.546155 0.479782 0.327561
13 1 0.905964 0.372851 0.330657
14 2 0.899465 0.388357 0.310625
15 2 0.910036 0.34705 0.314496
16 1 0.290026 0.466945 0.739484
17 2 0.288776 0.46698 0.706412
18 2 0.299493 0.474889 0.746715
19 1 0.326893 0.162856 0.476029
20 2 0.32526 0.145464 0.448118
21 2 0.331647 0.14364 0.498183
22 1 0.121422 0.437418 0.435397
23 2 0.121881 0.435053 0.402183
24 2 0.130287 0.429271 0.44849
25 1 0.34039 0.661979 0.407039
26 2 0.336327 0.653705 0.377727
27 2 0.34142 0.695092 0.408742
28 1 0.559683 0.373118 0.339671
29 2 0.557185 0.375701 0.307497
30 2 0.569607 0.37004 0.342374
31 1 0.584991 0.362874 0.345009
32 2 0.589363 0.355029 0.373943
33 2 0.592013 0.369149 0.322121
34 1 0.164198 0.431649 0.635566
35 2 0.164268 0.461191 0.651003
36 2 0.157249 0.431822 0.611596
37 1 0.317072 0.487003 0.760235
38 2 0.324461 0.491382 0.782264
39 2 0.319797 0.464058 0.737827
40 1 0.321321 0.349932 0.460718
41 2 0.315 0.349209 0.434899
42 2 0.318622 0.326881 0.483051
43 1 0.15539 0.370529 0.382959
44 2 0.149052 0.347156 0.372071
45 2 0.164516 0.364593 0.370693
46 1 0.550405 0.456419 0.380683
47 2 0.548335 0.445638 0.411461
48 2 0.55181 0.430275 0.360542
49 1 0.593609 0.484817 0.284078
50 2 0.597067 0.453947 0.289102
51 2 0.587343 0.493024 0.308726
52 1 0.823086 0.7217 0.565688
53 2 0.828946 0.697267 0.554172
54 2 0.82343 0.747631 0.544775
55 1 0.664559 0.81101 0.800605
56 2 0.670515 0.784499 0.804364
57 2 0.666439 0.833098 0.82477
58 1 0.256994 0.554368 0.653868
59 2 0.255559 0.583161 0.669967
60 2 0.251401 0.530563 0.667902
61 1 0.256843 0.193334 0.81042
62 2 0.246884 0.196276 0.810991
63 2 0.259826 0.174651 0.836173
64 1 0.321044 0.43284 0.597194
65 2 0.313605 0.455108 0.596664
66 2 0.324687 0.428998 0.566389
67 1 0.315738 0.572175 0.299545
68 2 0.319057 0.562805 0.32956
69 2 0.323493 0.580996 0.280434
70 1 0.884953 0.413468 0.296062
71 2 0.883295 0.428116 0.32549
72 2 0.879622 0.428901 0.272458
73 1 0.00401962 0.245863 0.104073
74 2 0.00469285 0.21579 0.118274
75 2 0.0125158 0.262692 0.109156
76 1 0.801352 0.672644 0.540276
77 2 0.810379 0.680349 0.552375
78 2 0.794322 0.681651 0.562205
79 1 0.242736 0.238359 0.731603
80 2 0.245221 0.270554 0.729164
81 2 0.250537 0.221046 0.743232
82 1 0.620134 0.363504 0.217598
83 2 0.629931 0.356874 0.216704
84 2 0.617625 0.381755 0.190989
85 1 0.261503 0.427549 0.660663
86 2 0.260876 0.397045 0.647387
87 2 0.27063 0.432003 0.673535
88 1 0.502606 0.745349 0.853231
89 2 0.512542 0.742102 0.851322
90 2 0.500177 0.759811 0.882151
91 1 0.339888 0.593318 0.260812
92 2 0.348746 0.584297 0.273377
93 2 0.339795 0.626259 0.255719
94 1 0.528739 0.80292 0.912583
95 2 0.53092 0.78928 0.88305
96 2 0.53721 0.809707 0.928941
97 1 0.605882 0.391016 0.295451
98 2 0.610518 0.375769 0.270156
99 2 0.612671 0.405434 0.315227
100 1 0.158484 0.342344 0.519574
101 2 0.167678 0.354808 0.523646
102 2 0.159119 0.311485 0.507151
103 1 0.277639 0.571524 0.585079
104 2 0.279111 0.602625 0.596023
105 2 0.269846 0.558086 0.601073
106 1 0.291463 0.449026 0.648192
107 2 0.292464 0.463968 0.618583
108 2 0.29933 0.429178 0.653637
109 1 0.218378 0.432479 0.679068
110 2 0.208698 0.426643 0.67308
111 2 0.219249 0.45757 0.70082
112 1 0.30976 0.662638 0.200597
113 2 0.301237 0.667252 0.183781
114 2 0.310901 0.630207 0.207296
115 1 0.530109 0.76561 0.832398
116 2 0.535016 0.74648 0.810543
117 2 0.523054 0.783059 0.816471
118 1 0.289952 0.646867 0.136331
119 2 0.279973 0.644749 0.135932
120 2 0.293666 0.632447 0.108948
121 1 0.981199 0.300687 0.124257
122 2 0.989888 0.284197 0.124897
123 2 0.978247 0.304636 0.0926545
124 1 0.138084 0.299529 0.375278
125 2 0.13882 0.266312 0.373969
126 2 0.130688 0.308039 0.396036
127 1 0.814754 0.619887 0.485085
128 2 0.809307 0.639416 0.505087
129 2 0.809066 0.609118 0.459873
130 1 0.59069 0.523167 0.194274
131 2 0.589012 0.555862 0.197561
132 2 0.594158 0.510925 0.223043
133 1 0.17912 0.46244 0.752106
134 2 0.169958 0.459155 0.765051
135 2 0.185442 0.472681 0.775815
136 1 0.264975 0.479329 0.782182
137 2 0.273093 0.489582 0.765635
138 2 0.267545 0.470679 0.813213
139 1 0.416935 0.731616 0.12904
140 2 0.415708 0.71185 0.102513
141 2 0.424628 0.752231 0.123686
142 1 0.323947 0.653843 0.115872
143 2 0.329949 0.67478 0.132378
144 2 0.31749 0.639919 0.137181
145 1 0.304898 0.36714 0.676051
146 2 0.308716 0.34613 0.65352
147 2 0.300828 0.349747 0.701042
148 1 0.304997 0.298996 0.405361
149 2 0.301448 0.275926 0.384409
150 2 0.305267 0.286523 0.43626
151 1 0.867858 0.426889 0.382697
152 2 0.876859 0.42997 0.396892
153 2 0.865558 0.394576 0.379826
154 1 0.337495 0.752308 0.426387
155 2 0.333718 0.783169 0.425918
156 2 0.341104 0.745678 0.456758
157 1 0.875083 0.75402 0.470052
158 2 0.869165 0.774828 0.487054
159 2 0.869704 0.738199 0.44683
160 1 0.779405 0.107729 0.268045
161 2 0.77676 0.109356 0.30015
162 2 0.789367 0.109216 0.265553
163 1 0.566825 0.420309 0.157938
164 2 0.56346 0.425285 0.188931
165 2 0.56145 0.39627 0.143367
166 1 0.314722 0.257055 0.480004
167 2 0.324362 0.256256 0.471179
168 2 0.31285 0.232346 0.501491
169 1 0.0244229 0.310305 0.124188
170 2 0.0343578 0.314069 0.123682
171 2 0.020043 0.339412 0.117064
172 1 0.120872 0.332837 0.449399
173 2 0.113393 0.35479 0.44665
174 2 0.129063 0.34837 0.460556
175 1 0.562565 0.430695 0.26008
176 2 0.553883 0.446243 0.265713
177 2 0.570129 0.451726 0.265834
178 1 0.352033 0.671914 0.486081
179 2 0.351766 0.647131 0.508355
180 2 0.348617 0.660905 0.45675
181 1 0.322513 0.429641 0.687229
182 2 0.316513 0.403 0.686053
183 2 0.324206 0.440671 0.656284
184 1 0.765397 0.483382 0.402698
185 2 0.755566 0.481829 0.3968
186 2 0.767886 0.514528 0.411197
187 1 0.867836 0.435381 0.233275
188 2 0.860882 0.450457 0.251893
189 2 0.868128 0.449554 0.20312
190 1 0.328716 0.427413 0.50705
191 2 0.338443 0.429457 0.499588
192 2 0.324036 0.409193 0.483904
193 1 0.856224 0.490545 0.294088
194 2 0.8596 0.471361 0.318917
195 2 0.849962 0.513463 0.30634
196 1 0.21696 0.541899 0.733964
197 2 0.226952 0.541064 0.732857
198 2 0.213282 0.536929 0.703368
199 1 0.246745 0.483166 0.717043
200 2 0.250281 0.46002 0.696152
201 2 0.251583 0.481113 0.746144
202 1 0.191236 0.433505 0.675641
203 2 0.182269 0.427596 0.662127
204 2 0.190075 0.449661 0.70454
205 1 0.573393 0.495689 0.34133
206 2 0.56966 0.523653 0.354533
207 2 0.569389 0.469269 0.35666
208 1 0.805679 0.104955 0.225307
209 2 0.801811 0.128643 0.205717
210 2 0.80754 0.0776901 0.207161
211 1 0.514313 0.772265 0.747381
212 2 0.505784 0.76272 0.761932
213 2 0.512255 0.792527 0.721816
214 1 0.306909 0.570409 0.211527
215 2 0.299557 0.547893 0.209652
216 2 0.311422 0.568014 0.241176
217 1 0.203911 0.475061 0.794829
218 2 0.210953 0.459867 0.812974
219 2 0.20821 0.497115 0.774349
220 1 0.839751 0.649999 0.522178
221 2 0.847674 0.631867 0.531385
222 2 0.832165 0.629687 0.514492
223 1 0.181285 0.381131 0.547787
224 2 0.191211 0.385172 0.548122
225 2 0.177246 0.397603 0.573448
226 1 0.301884 0.620221 0.060845
227 2 0.303233 0.613174 0.0285766
228 2 0.310262 0.633473 0.0733185
229 1 0.790872 0.720581 0.614104
230 2 0.783975 0.739193 0.629473
231 2 0.799904 0.727557 0.626593
232 1 0.500108 0.79938 0.934303
233 2 0.510011 0.801083 0.929995
234 2 0.497417 0.819351 0.959439
235 1 0.277142 0.437845 0.250363
236 2 0.267711 0.428473 0.256272
237 2 0.283419 0.416355 0.26491
238 1 0.144989 0.392878 0.454569
239 2 0.150247 0.385791 0.427114
240 2 0.149557 0.379765 0.481164
241 1 0.998433 0.164671 0.13801
242 2 1.00061 0.137005 0.15513
243 2 0.989824 0.177442 0.149166
244 1 0.230257 0.184045 0.795575
245 2 0.23002 0.2077 0.772103
246 2 0.2214 0.168617 0.796799
247 1 0.394463 0.677844 0.138475
248 2 0.38864 0.681973 0.165258
249 2 0.401587 0.701234 0.138252
250 1 0.858581 0.341907 0.373383
251 2 0.851033 0.320133 0.375408
252 2 0.863498 0.337312 0.344725
253 1 0.233173 0.423738 0.602191
254 2 0.2291 0.421899 0.632578
255 2 0.241677 0.441211 0.603727
256 1 0.488839 0.749296 0.772145
257 2 0.491195 0.755503 0.803941
258 2 0.478891 0.748962 0.768751
259 1 0.322788 0.11317 0.399979
260 2 0.323181 0.0864605 0.38008
261 2 0.318064 0.137984 0.384248
262 1 0.0353667 0.0495471 0.787769
263 2 0.0267722 0.0382553 0.775006
264 2 0.0382756 0.0296105 0.812661
265 1 0.791603 0.168582 0.1761
266 2 0.781628 0.166614 0.17736
267 2 0.794336 0.200416 0.172266
268 1 0.610535 0.39684 0.143538
269 2 0.608472 0.368299 0.127752
270 2 0.602629 0.41717 0.141722
271 1 0.815963 0.725996 0.660288
272 2 0.81917 0.709386 0.633438
273 2 0.823326 0.727739 0.682776
274 1 0.894126 0.424175 0.40129
275 2 0.900211 0.439976 0.422505
276 2 0.899002 0.398651 0.387307
277 1 0.866394 0.339628 0.287598
278 2 0.864114 0.335249 0.25544
279 2 0.873308 0.363547 0.290411
280 1 0.352018 0.752647 0.510325
281 2 0.350677 0.75487 0.543282
282 2 0.352815 0.720582 0.501611
283 1 0.296026 0.496785 0.566268
284 2 0.290447 0.521672 0.578347
285 2 0.298197 0.50283 0.534296
286 1 0.00260826 0.29632 0.0255391
287 2 0.00204794 0.28067 0.0549109
288 2 1.00543 0.274677 0.00199644
289 1 0.328886 0.701789 0.259194
290 2 0.325336 0.725708 0.279168
291 2 0.321337 0.688069 0.242175
292 1 0.139436 0.423943 0.565125
293 2 0.1308 0.407507 0.568638
294 2 0.141609 0.426865 0.53272
295 1 0.203551 0.423546 0.587485
296 2 0.199937 0.431664 0.617487
297 2 0.213479 0.420046 0.589376
298 1 0.281072 0.522467 0.226687
299 2 0.272 0.53575 0.222192
300 2 0.280164 0.489944 0.233336
ITEM: TIMESTEP
6400
ITEM: NUMBER OF ATOMS
300
ITEM: BOX BOUNDS pp ff pp
0.0000000000000000e+00 1.0000000000000000e+02
0.0000000000000000e+00 3.0000000000000000e+01
0.0000000000000000e+00 3.0000000000000000e+01
ITEM: ATOMS id type xs ys zs
1 1 0.40061 0.692475 0.0521314
2 2 0.395694 0.705423 0.0781099
3 2 0.39405 0.679799 0.0303993
4 1 0.591632 0.448467 0.128178
5 2 0.584002 0.430946 0.140719
6 2 0.594018 0.473096 0.149184
7 1 0.00594354 0.372773 0.125295
8 2 0.00630046 0.364731 0.0929684
9 2 0.996518 0.379942 0.133812
10 1 0.542536 0.487831 0.294593
11 2 0.532572 0.489366 0.296979
12 2 0.54623 0.471784 0.321088
13 1 0.909169 0.373961 0.322819
14 2 0.904253 0.373289 0.293799
15 2 0.917938 0.358295 0.319439
16 1 0.289358 0.490475 0.723762
17 2 0.287575 0.490366 0.690963
18 2 0.298943 0.482754 0.72929
19 1 0.323861 0.179364 0.507631
20 2 0.323888 0.165028 0.477538
21 2 0.331959 0.16969 0.524627
22 1 0.116182 0.41438 0.451062
23 2 0.114033 0.445242 0.440706
24 2 0.126063 0.411438 0.455266
25 1 0.356432 0.684734 0.410657
26 2 0.358939 0.679441 0.378825
27 2 0.348871 0.706504 0.412053
28 1 0.562646 0.396783 0.327933
29 2 0.560948 0.409609 0.297691
30 2 0.571531 0.381486 0.328147
31 1 0.58668 0.358199 0.342055
32 2 0.587764 0.338519 0.368715
33 2 0.595682 0.367828 0.331201
34 1 0.163865 0.443961 0.633531
35 2 0.157456 0.440306 0.658855
36 2 0.158793 0.445303 0.604836
37 1 0.315245 0.470107 0.735869
38 2 0.322269 0.488799 0.721259
39 2 0.31624 0.438437 0.726013
40 1 0.327115 0.328698 0.443014
41 2 0.318775 0.312668 0.433995
42 2 0.331699 0.340571 0.415873
43 1 0.152754 0.370138 0.375566
44 2 0.147184 0.343231 0.369044
45 2 0.157378 0.380018 0.347712
46 1 0.551362 0.457761 0.374674
47 2 0.548294 0.452804 0.406011
48 2 0.55498 0.429264 0.362282
49 1 0.585634 0.443308 0.282772
50 2 0.591756 0.424847 0.301586
51 2 0.582834 0.470404 0.299796
52 1 0.825493 0.751611 0.568123
53 2 0.83343 0.734467 0.557293
54 2 0.824537 0.779577 0.550265
55 1 0.667655 0.794944 0.818978
56 2 0.674685 0.782483 0.839147
57 2 0.658616 0.786057 0.830128
58 1 0.256371 0.587854 0.66188
59 2 0.247303 0.599728 0.654366
60 2 0.255609 0.555835 0.670795
61 1 0.248063 0.209854 0.826191
62 2 0.238477 0.213057 0.817251
63 2 0.248699 0.208124 0.859412
64 1 0.321931 0.45133 0.607448
65 2 0.313764 0.467913 0.597697
66 2 0.326689 0.43931 0.580707
67 1 0.319343 0.565707 0.310384
68 2 0.316919 0.570675 0.342339
69 2 0.325559 0.589788 0.300289
70 1 0.886156 0.397999 0.265611
71 2 0.887801 0.403431 0.298038
72 2 0.882969 0.426151 0.25127
73 1 0.00168057 0.233744 0.0849771
74 2 5.89544e-05 0.204381 0.0997997
75 2 0.0101909 0.24694 0.0964775
76 1 0.804474 0.704462 0.541618
77 2 0.812197 0.722587 0.552565
78 2 0.796023 0.71568 0.555462
79 1 0.247258 0.252575 0.723675
80 2 0.255916 0.248268 0.70756
81 2 0.248481 0.245207 0.755927
82 1 0.612336 0.386443 0.233731
83 2 0.61036 0.354867 0.225324
84 2 0.610035 0.406548 0.208273
85 1 0.263188 0.414172 0.657013
86 2 0.259695 0.382955 0.655983
87 2 0.27289 0.414241 0.648937
88 1 0.494765 0.735135 0.849877
89 2 0.503758 0.721777 0.844047
90 2 0.49399 0.742968 0.882174
91 1 0.335959 0.620041 0.266586
92 2 0.344014 0.619438 0.246845
93 2 0.329882 0.644731 0.257037
94 1 0.525867 0.785606 0.909048
95 2 0.525707 0.767323 0.881182
96 2 0.532006 0.81159 0.904898
97 1 0.60906 0.414625 0.315556
98 2 0.611773 0.401145 0.286443
99 2 0.609698 0.44783 0.313563
100 1 0.164104 0.367977 0.517077
101 2 0.167008 0.375221 0.548141
102 2 0.171511 0.352251 0.50113
103 1 0.275903 0.595614 0.592219
104 2 0.277062 0.628181 0.586252
105 2 0.270041 0.591449 0.618902
106 1 0.28955 0.411884 0.649629
107 2 0.294671 0.427848 0.625861
108 2 0.294875 0.385828 0.660455
109 1 0.215692 0.426116 0.68446
110 2 0.206323 0.433812 0.675708
111 2 0.217513 0.437557 0.715175
112 1 0.311045 0.635536 0.165992
113 2 0.302106 0.638677 0.151382
114 2 0.311318 0.607105 0.183369
115 1 0.527707 0.734135 0.821401
116 2 0.53765 0.733572 0.817902
117 2 0.523531 0.745905 0.793494
118 1 0.28758 0.649958 0.112951
119 2 0.27966 0.67025 0.111435
120 2 0.290301 0.641201 0.082094
121 1 0.982052 0.300936 0.112765
122 2 0.989257 0.277891 0.114542
123 2 0.978319 0.301654 0.0818491
124 1 0.137525 0.297044 0.364448
125 2 0.141891 0.268836 0.374629
126 2 0.130581 0.306229 0.386607
127 1 0.821045 0.644555 0.496503
128 2 0.813119 0.663641 0.503498
129 2 0.820106 0.632094 0.465745
130 1 0.595482 0.493277 0.20973
131 2 0.586614 0.508645 0.208647
132 2 0.595641 0.472009 0.235391
133 1 0.180254 0.471218 0.775854
134 2 0.175815 0.49487 0.794096
135 2 0.189647 0.466959 0.786469
136 1 0.263886 0.475033 0.767094
137 2 0.271004 0.468765 0.744535
138 2 0.266849 0.464012 0.796962
139 1 0.420837 0.714907 0.119779
140 2 0.41765 0.711688 0.0883479
141 2 0.429931 0.728767 0.119897
142 1 0.321465 0.654291 0.0809941
143 2 0.331072 0.656217 0.0900444
144 2 0.315922 0.64553 0.107318
145 1 0.307353 0.341314 0.661203
146 2 0.312118 0.332998 0.633101
147 2 0.30731 0.315271 0.682008
148 1 0.306475 0.284062 0.408359
149 2 0.298114 0.301322 0.402323
150 2 0.305834 0.269635 0.438333
151 1 0.87226 0.409714 0.358655
152 2 0.879494 0.422719 0.377644
153 2 0.871736 0.37684 0.363884
154 1 0.333505 0.741573 0.426084
155 2 0.325692 0.761051 0.418777
156 2 0.337633 0.751696 0.454707
157 1 0.879548 0.709699 0.492939
158 2 0.87001 0.717469 0.486627
159 2 0.884383 0.704636 0.464204
160 1 0.782951 0.0857822 0.277549
161 2 0.778592 0.057668 0.26708
162 2 0.790476 0.0936273 0.257047
163 1 0.57214 0.401798 0.167939
164 2 0.564879 0.418259 0.183885
165 2 0.570524 0.368995 0.170397
166 1 0.307457 0.250915 0.497515
167 2 0.311759 0.220995 0.500719
168 2 0.30881 0.268453 0.5255
169 1 0.0190041 0.291613 0.117521
170 2 0.0268696 0.297359 0.0977548
171 2 0.0149296 0.320643 0.126681
172 1 0.124925 0.333606 0.447013
173 2 0.118044 0.357243 0.44188
174 2 0.133234 0.347484 0.459316
175 1 0.560427 0.45206 0.234653
176 2 0.552716 0.466406 0.250293
177 2 0.568933 0.460029 0.250263
178 1 0.3569 0.662683 0.50439
179 2 0.36053 0.631624 0.504125
180 2 0.35775 0.67597 0.473951
181 1 0.324235 0.407022 0.68172
182 2 0.318697 0.379334 0.683659
183 2 0.323681 0.419467 0.650853
184 1 0.756211 0.473178 0.415568
185 2 0.747261 0.459159 0.410596
186 2 0.758148 0.47426 0.448252
187 1 0.866644 0.457359 0.244523
188 2 0.862263 0.454415 0.27434
189 2 0.862104 0.481381 0.22706
190 1 0.332871 0.406457 0.522719
191 2 0.340186 0.426138 0.511349
192 2 0.331908 0.380029 0.502661
193 1 0.851958 0.460409 0.322021
194 2 0.860805 0.447442 0.33058
195 2 0.845617 0.457821 0.347664
196 1 0.225119 0.503592 0.737016
197 2 0.234703 0.502489 0.727564
198 2 0.220657 0.52985 0.72286
199 1 0.25233 0.50397 0.680687
200 2 0.255713 0.482484 0.657833
201 2 0.255743 0.495187 0.710763
202 1 0.187125 0.448781 0.687726
203 2 0.17862 0.455472 0.671522
204 2 0.185522 0.450374 0.72059
205 1 0.572588 0.498805 0.340232
206 2 0.574723 0.524581 0.360133
207 2 0.565174 0.480903 0.353647
208 1 0.803061 0.105368 0.211295
209 2 0.802476 0.138326 0.215891
210 2 0.808963 0.0989381 0.185167
211 1 0.513175 0.765049 0.753105
212 2 0.503617 0.772532 0.759427
213 2 0.514281 0.75873 0.720584
214 1 0.306409 0.558792 0.222708
215 2 0.29647 0.55792 0.219125
216 2 0.308785 0.552281 0.254425
217 1 0.20437 0.479509 0.808605
218 2 0.206442 0.45959 0.834424
219 2 0.212879 0.491931 0.796258
220 1 0.842474 0.692501 0.535188
221 2 0.848093 0.670482 0.551786
222 2 0.835467 0.676316 0.517761
223 1 0.179265 0.387377 0.592872
224 2 0.188508 0.399332 0.588521
225 2 0.174214 0.407334 0.613593
226 1 0.297671 0.63477 0.0369629
227 2 0.299641 0.611429 0.0140892
228 2 0.306238 0.648406 0.047439
229 1 0.783498 0.718904 0.614113
230 2 0.776071 0.731048 0.632843
231 2 0.792007 0.719227 0.63162
232 1 0.503014 0.759863 0.93721
233 2 0.51147 0.777383 0.934107
234 2 0.504353 0.735491 0.959507
235 1 0.28556 0.461375 0.250334
236 2 0.293126 0.467988 0.229562
237 2 0.286483 0.430304 0.262007
238 1 0.144527 0.398022 0.457184
239 2 0.147782 0.390637 0.426544
240 2 0.151198 0.38751 0.479681
241 1 0.00262321 0.143545 0.117356
242 2 0.00741912 0.135165 0.14538
243 2 0.996807 0.118233 0.107631
244 1 0.224471 0.217036 0.77464
245 2 0.228193 0.235475 0.749796
246 2 0.215781 0.203584 0.765097
247 1 0.395308 0.707367 0.150461
248 2 0.395734 0.732019 0.172852
249 2 0.404453 0.701712 0.138214
250 1 0.866444 0.31862 0.344867
251 2 0.864609 0.286055 0.341238
252 2 0.867458 0.332703 0.314844
253 1 0.235647 0.410352 0.618243
254 2 0.229784 0.411921 0.645201
255 2 0.245075 0.417341 0.626879
256 1 0.488928 0.794109 0.779345
257 2 0.490785 0.775975 0.80662
258 2 0.483616 0.821081 0.787719
259 1 0.316563 0.116246 0.443317
260 2 0.308337 0.131427 0.43197
261 2 0.315711 0.0833431 0.438795
262 1 0.0361325 0.0365774 0.791967
263 2 0.0274482 0.051018 0.783929
264 2 0.0433139 0.0475362 0.771522
265 1 0.79428 0.193041 0.217051
266 2 0.793996 0.221174 0.199196
267 2 0.786184 0.19134 0.236543
268 1 0.610428 0.38953 0.1305
269 2 0.606357 0.367518 0.109465
270 2 0.604967 0.417453 0.13063
271 1 0.808609 0.7217 0.646169
272 2 0.816547 0.738455 0.634752
273 2 0.810871 0.689318 0.648557
274 1 0.894462 0.434304 0.401001
275 2 0.896859 0.44181 0.43248
276 2 0.901899 0.416891 0.387095
277 1 0.865132 0.342003 0.25554
278 2 0.860592 0.342892 0.225852
279 2 0.873544 0.35998 0.254262
280 1 0.35098 0.749115 0.5007
281 2 0.348312 0.763768 0.529288
282 2 0.354361 0.718384 0.507003
283 1 0.291012 0.493274 0.599464
284 2 0.291413 0.524612 0.610744
285 2 0.282332 0.488384 0.583649
286 1 0.000406835 0.286419 0.00955846
287 2 -5.62414e-07 0.265143 0.035183
288 2 1.0017 0.269413 0.981215
289 1 0.310903 0.687135 0.24115
290 2 0.30825 0.718922 0.236415
291 2 0.31047 0.670763 0.21215
292 1 0.146879 0.408996 0.568648
293 2 0.151012 0.393511 0.542543
294 2 0.138255 0.42306 0.559321
295 1 0.206065 0.380842 0.588525
296 2 0.215082 0.394819 0.585012
297 2 0.204904 0.370577 0.620001
298 1 0.279504 0.550363 0.215691
299 2 0.272003 0.543092 0.194879
300 2 0.282767 0.522389 0.230191
ITEM: TIMESTEP
6500
ITEM: NUMBER OF ATOMS
300
ITEM: BOX BOUNDS pp ff pp
0.0000000000000000e+00 1.0000000000000000e+02
0.0000000000000000e+00 3.0000000000000000e+01
0.0000000000000000e+00 3.0000000000000000e+01
ITEM: ATOMS id type xs ys zs
1 1 0.399307 0.721872 0.0408134
2 2 0.396145 0.729142 0.0715893
3 2 0.391821 0.72636 0.0191733
4 1 0.593809 0.416688 0.134779
5 2 0.586378 0.394472 0.13279
6 2 0.591843 0.438486 0.159131
7 1 0.00847332 0.357111 0.141814
8 2 0.0115998 0.387738 0.133784
9 2 0.00128409 0.34763 0.120673
10 1 0.545117 0.484873 0.275097
11 2 0.541256 0.515425 0.278571
12 2 0.547509 0.4727 0.305086
13 1 0.906914 0.399375 0.331518
14 2 0.901454 0.403249 0.303862
15 2 0.911662 0.370061 0.330387
16 1 0.289164 0.509781 0.722503
17 2 0.289221 0.511886 0.689237
18 2 0.297869 0.497175 0.733003
19 1 0.318624 0.193667 0.52342
20 2 0.315239 0.167343 0.506366
21 2 0.319752 0.185355 0.555481
22 1 0.119605 0.414904 0.481
23 2 0.118406 0.443317 0.464034
24 2 0.129352 0.407809 0.483289
25 1 0.363242 0.68506 0.416034
26 2 0.370839 0.704325 0.406099
27 2 0.354645 0.697503 0.404404
28 1 0.55917 0.378389 0.337002
29 2 0.5561 0.359878 0.31124
30 2 0.56897 0.373742 0.341739
31 1 0.585541 0.357917 0.338134
32 2 0.589723 0.327949 0.342455
33 2 0.592452 0.379428 0.327287
34 1 0.163424 0.47207 0.647239
35 2 0.156542 0.481104 0.669672
36 2 0.159013 0.466934 0.617766
37 1 0.312989 0.472196 0.748625
38 2 0.321105 0.489877 0.756784
39 2 0.315726 0.445432 0.730974
40 1 0.334102 0.349882 0.452615
41 2 0.325279 0.33981 0.440585
42 2 0.341244 0.328633 0.442983
43 1 0.150402 0.379566 0.379011
44 2 0.147102 0.350882 0.366073
45 2 0.153956 0.39894 0.35461
46 1 0.551042 0.464615 0.367869
47 2 0.545938 0.46048 0.396234
48 2 0.555588 0.436061 0.359738
49 1 0.586172 0.485864 0.291119
50 2 0.59292 0.466887 0.306772
51 2 0.580057 0.499726 0.313556
52 1 0.829573 0.76534 0.591771
53 2 0.836583 0.748746 0.574751
54 2 0.833316 0.794384 0.602348
55 1 0.669802 0.779533 0.837138
56 2 0.671838 0.777741 0.869724
57 2 0.670245 0.749026 0.823787
58 1 0.25337 0.579769 0.638494
59 2 0.24505 0.597938 0.63506
60 2 0.251098 0.550456 0.652438
61 1 0.235786 0.214059 0.834063
62 2 0.229464 0.236236 0.820826
63 2 0.232405 0.204481 0.863936
64 1 0.316886 0.430147 0.60587
65 2 0.314451 0.462346 0.608771
66 2 0.32004 0.424093 0.574823
67 1 0.319744 0.54224 0.291591
68 2 0.326991 0.523831 0.305326
69 2 0.323058 0.573334 0.286874
70 1 0.879139 0.418055 0.254779
71 2 0.876826 0.405487 0.284674
72 2 0.877465 0.450918 0.254768
73 1 0.000587598 0.219489 0.0696222
74 2 0.00270032 0.186945 0.0711632
75 2 0.00754879 0.236678 0.0862722
76 1 0.807504 0.713472 0.516054
77 2 0.806991 0.746749 0.516951
78 2 0.800238 0.700586 0.534986
79 1 0.243505 0.23077 0.746131
80 2 0.250486 0.254257 0.750355
81 2 0.24366 0.209825 0.772056
82 1 0.608095 0.400823 0.224373
83 2 0.611476 0.387077 0.196175
84 2 0.602347 0.427095 0.21704
85 1 0.26285 0.424639 0.634764
86 2 0.256677 0.398519 0.637106
87 2 0.272165 0.41386 0.629207
88 1 0.491367 0.742842 0.850769
89 2 0.496855 0.720239 0.834472
90 2 0.49102 0.734955 0.883135
91 1 0.33112 0.641029 0.292258
92 2 0.328498 0.66164 0.316954
93 2 0.329687 0.656159 0.262943
94 1 0.52488 0.760538 0.893036
95 2 0.523541 0.739411 0.867642
96 2 0.530406 0.786394 0.88287
97 1 0.604058 0.413192 0.309121
98 2 0.604936 0.403903 0.277242
99 2 0.612762 0.408372 0.324807
100 1 0.168977 0.397181 0.5149
101 2 0.173082 0.372751 0.532982
102 2 0.174916 0.423988 0.515652
103 1 0.28186 0.575559 0.634229
104 2 0.284423 0.595469 0.65956
105 2 0.272103 0.579063 0.627825
106 1 0.286698 0.391899 0.627158
107 2 0.286885 0.414103 0.652012
108 2 0.295544 0.376464 0.625305
109 1 0.215085 0.43949 0.690286
110 2 0.212501 0.465894 0.671855
111 2 0.206908 0.426295 0.704217
112 1 0.307618 0.624803 0.139141
113 2 0.299371 0.628257 0.120606
114 2 0.305386 0.60818 0.167059
115 1 0.52268 0.70994 0.81109
116 2 0.529814 0.689281 0.800188
117 2 0.519638 0.729425 0.786018
118 1 0.285282 0.639588 0.0919981
119 2 0.275293 0.638024 0.0919008
120 2 0.28847 0.651919 0.0629105
121 1 0.982329 0.314999 0.0775863
122 2 0.984937 0.298893 0.0497276
123 2 0.974515 0.299648 0.0916271
124 1 0.137369 0.298611 0.358017
125 2 0.140072 0.266519 0.357903
126 2 0.132997 0.305956 0.387082
127 1 0.831495 0.661888 0.502772
128 2 0.822823 0.677939 0.506992
129 2 0.830026 0.63502 0.483661
130 1 0.599734 0.486397 0.212379
131 2 0.601009 0.516304 0.198285
132 2 0.597945 0.490211 0.244952
133 1 0.186169 0.482411 0.772527
134 2 0.180564 0.486238 0.799866
135 2 0.195777 0.487671 0.780129
136 1 0.262664 0.504937 0.748434
137 2 0.271857 0.494149 0.740982
138 2 0.263146 0.526047 0.77418
139 1 0.416035 0.694162 0.129575
140 2 0.415273 0.674057 0.103108
141 2 0.425683 0.698443 0.13723
142 1 0.324256 0.633937 0.0648034
143 2 0.333718 0.623171 0.0641515
144 2 0.320366 0.628523 0.0950308
145 1 0.313144 0.312278 0.654744
146 2 0.319685 0.317142 0.630005
147 2 0.315837 0.285434 0.672349
148 1 0.308845 0.318014 0.416821
149 2 0.300416 0.326769 0.401164
150 2 0.306784 0.294987 0.439923
151 1 0.871584 0.38799 0.354222
152 2 0.874968 0.409805 0.37676
153 2 0.87452 0.357257 0.362636
154 1 0.338651 0.724435 0.409954
155 2 0.329526 0.71408 0.401084
156 2 0.338545 0.733853 0.441928
157 1 0.871332 0.674297 0.526373
158 2 0.871479 0.679654 0.559269
159 2 0.880709 0.673054 0.514852
160 1 0.786042 0.0888881 0.269148
161 2 0.785643 0.0561841 0.275456
162 2 0.789439 0.0937783 0.23818
163 1 0.566914 0.385959 0.153129
164 2 0.567483 0.398078 0.184123
165 2 0.557318 0.383704 0.14402
166 1 0.301727 0.262924 0.486968
167 2 0.307361 0.235438 0.485279
168 2 0.299321 0.268965 0.518753
169 1 0.019709 0.267689 0.114973
170 2 0.0296905 0.267272 0.116961
171 2 0.0162536 0.296368 0.12746
172 1 0.127403 0.307171 0.441392
173 2 0.118458 0.322008 0.442795
174 2 0.133414 0.320283 0.464581
175 1 0.562778 0.426433 0.236836
176 2 0.554276 0.44389 0.238647
177 2 0.56959 0.439977 0.257135
178 1 0.356269 0.652193 0.503161
179 2 0.358541 0.619951 0.506922
180 2 0.358453 0.661764 0.472073
181 1 0.316723 0.402597 0.688713
182 2 0.316126 0.369477 0.691912
183 2 0.316735 0.410652 0.656367
184 1 0.747518 0.436034 0.409218
185 2 0.738008 0.437577 0.419405
186 2 0.751906 0.465619 0.413901
187 1 0.862173 0.491803 0.257185
188 2 0.855643 0.470526 0.270772
189 2 0.859725 0.522984 0.265684
190 1 0.327841 0.409628 0.519402
191 2 0.336761 0.424302 0.522835
192 2 0.328059 0.389053 0.493187
193 1 0.849285 0.437988 0.31749
194 2 0.857632 0.421456 0.32546
195 2 0.84243 0.416495 0.306214
196 1 0.232442 0.474997 0.761167
197 2 0.241828 0.483878 0.753857
198 2 0.228279 0.460343 0.734637
199 1 0.25196 0.492926 0.67201
200 2 0.256865 0.469915 0.65428
201 2 0.255116 0.492132 0.70363
202 1 0.185663 0.445387 0.686472
203 2 0.177543 0.449577 0.667471
204 2 0.183985 0.458167 0.716746
205 1 0.571195 0.525521 0.369333
206 2 0.573577 0.542239 0.397055
207 2 0.561801 0.514336 0.371688
208 1 0.799964 0.115524 0.198865
209 2 0.802754 0.14618 0.208071
210 2 0.80534 0.105939 0.172444
211 1 0.511759 0.76628 0.745785
212 2 0.504878 0.779345 0.766142
213 2 0.513075 0.786436 0.719601
214 1 0.303979 0.581589 0.22194
215 2 0.295189 0.565942 0.219144
216 2 0.309099 0.568727 0.247521
217 1 0.211007 0.48993 0.807472
218 2 0.215776 0.485965 0.8365
219 2 0.217634 0.4892 0.782518
220 1 0.848861 0.721022 0.541385
221 2 0.856535 0.72909 0.521594
222 2 0.844225 0.694132 0.529166
223 1 0.184527 0.365209 0.588112
224 2 0.193505 0.350757 0.590706
225 2 0.182882 0.384284 0.614893
226 1 0.302027 0.654347 0.0154819
227 2 0.304856 0.650661 0.983724
228 2 0.31006 0.652792 0.0352751
229 1 0.788304 0.71693 0.592925
230 2 0.779919 0.7254 0.608993
231 2 0.796205 0.729369 0.609134
232 1 0.501625 0.723644 0.940246
233 2 0.507993 0.743613 0.924065
234 2 0.506617 0.697709 0.952958
235 1 0.294825 0.480933 0.239073
236 2 0.298861 0.508202 0.252729
237 2 0.301642 0.45656 0.238231
238 1 0.145717 0.37729 0.475635
239 2 0.145654 0.375547 0.442348
240 2 0.155057 0.382638 0.486282
241 1 0.00893899 0.129861 0.0945775
242 2 0.00305807 0.104782 0.104471
243 2 0.0156892 0.118447 0.0727933
244 1 0.216697 0.255219 0.761714
245 2 0.225802 0.243091 0.755164
246 2 0.210288 0.244953 0.738276
247 1 0.389671 0.736283 0.133364
248 2 0.385204 0.738955 0.163067
249 2 0.398668 0.722249 0.137192
250 1 0.876395 0.296791 0.319749
251 2 0.876034 0.264161 0.313046
252 2 0.872208 0.3138 0.294711
253 1 0.233133 0.401719 0.635673
254 2 0.226269 0.40882 0.65885
255 2 0.235889 0.429762 0.620169
256 1 0.494541 0.81388 0.797886
257 2 0.490723 0.792191 0.819765
258 2 0.491647 0.844751 0.805949
259 1 0.314102 0.11701 0.483665
260 2 0.318306 0.113653 0.453609
261 2 0.306969 0.0939599 0.487475
262 1 0.0356726 0.032396 0.797423
263 2 0.0383986 0.000772264 0.792086
264 2 0.0427158 0.0528585 0.78554
265 1 0.794197 0.174535 0.268725
266 2 0.785594 0.191346 0.266246
267 2 0.792259 0.142099 0.272878
268 1 0.619812 0.376612 0.135826
269 2 0.61685 0.345892 0.127467
270 2 0.612375 0.398171 0.13019
271 1 0.809244 0.742964 0.642163
272 2 0.816071 0.749806 0.618785
273 2 0.812567 0.718206 0.661539
274 1 0.890825 0.435677 0.406986
275 2 0.895676 0.44988 0.432441
276 2 0.896758 0.435172 0.380157
277 1 0.868248 0.338149 0.241949
278 2 0.866683 0.327249 0.210883
279 2 0.873624 0.36624 0.241005
280 1 0.342486 0.731944 0.496293
281 2 0.342887 0.739903 0.528635
282 2 0.346986 0.702573 0.491449
283 1 0.294113 0.499539 0.615385
284 2 0.290511 0.529702 0.622944
285 2 0.288203 0.485103 0.592701
286 1 0.99414 0.279469 0.00210374
287 2 0.99617 0.252969 0.0211577
288 2 0.00165667 0.284443 0.980688
289 1 0.314089 0.686384 0.207589
290 2 0.309762 0.716112 0.203195
291 2 0.311416 0.665941 0.182814
292 1 0.152517 0.430116 0.581422
293 2 0.160427 0.417948 0.565056
294 2 0.144233 0.414505 0.571173
295 1 0.212518 0.333833 0.614836
296 2 0.211915 0.305384 0.632091
297 2 0.221646 0.346939 0.618522
298 1 0.27547 0.544831 0.230071
299 2 0.265606 0.540041 0.227432
300 2 0.280208 0.515686 0.226557
ITEM: TIMESTEP
6600
ITEM: NUMBER OF ATOMS
300
ITEM: BOX BOUNDS pp ff pp
0.0000000000000000e+00 1.0000000000000000e+02
0.0000000000000000e+00 3.0000000000000000e+01
0.0000000000000000e+00 3.0000000000000000e+01
ITEM: ATOMS id type xs ys zs
1 1 0.397573 0.727053 0.034056
2 2 0.390317 0.73297 0.0562165
3 2 0.400464 0.755791 0.0201874
4 1 0.593022 0.406451 0.136526
5 2 0.583492 0.396903 0.139791
6 2 0.593979 0.438068 0.146591
7 1 0.00248011 0.322295 0.140367
8 2 0.996416 0.30109 0.156272
9 2 0.997783 0.334657 0.113663
10 1 0.555322 0.472585 0.260876
11 2 0.552516 0.503671 0.25331
12 2 0.55485 0.468232 0.293887
13 1 0.898606 0.422933 0.318642
14 2 0.889501 0.425418 0.305084
15 2 0.905411 0.434979 0.297393
16 1 0.284153 0.522545 0.736461
17 2 0.284882 0.540023 0.708181
18 2 0.293297 0.513942 0.746857
19 1 0.313673 0.213684 0.521729
20 2 0.310706 0.185438 0.507052
21 2 0.321921 0.207855 0.539654
22 1 0.126559 0.398752 0.521227
23 2 0.122666 0.423714 0.50335
24 2 0.133971 0.384441 0.504025
25 1 0.358294 0.640408 0.43483
26 2 0.365594 0.661773 0.426928
27 2 0.349427 0.65538 0.431154
28 1 0.555459 0.384244 0.341114
29 2 0.556274 0.37723 0.30864
30 2 0.562578 0.368036 0.358004
31 1 0.581622 0.35154 0.335143
32 2 0.581455 0.330852 0.309012
33 2 0.587247 0.378123 0.327872
34 1 0.165546 0.462398 0.646063
35 2 0.159861 0.45996 0.673379
36 2 0.160188 0.453595 0.61933
37 1 0.307668 0.46712 0.749501
38 2 0.313255 0.456371 0.774971
39 2 0.302859 0.44131 0.73579
40 1 0.338946 0.364947 0.423227
41 2 0.329502 0.35457 0.426753
42 2 0.340205 0.377511 0.392639
43 1 0.159035 0.384541 0.408046
44 2 0.153656 0.357759 0.399543
45 2 0.161382 0.401832 0.380643
46 1 0.54815 0.468703 0.355035
47 2 0.539227 0.469721 0.370049
48 2 0.551403 0.437199 0.353982
49 1 0.590852 0.505119 0.284559
50 2 0.591228 0.473095 0.293725
51 2 0.584281 0.521323 0.303765
52 1 0.835044 0.785096 0.61005
53 2 0.839859 0.761363 0.593014
54 2 0.840878 0.812052 0.612557
55 1 0.671856 0.763024 0.852916
56 2 0.668056 0.758245 0.883376
57 2 0.681823 0.760633 0.854198
58 1 0.257446 0.587328 0.623627
59 2 0.250728 0.610339 0.614676
60 2 0.253008 0.557509 0.62536
61 1 0.223769 0.215502 0.825769
62 2 0.221326 0.241258 0.806238
63 2 0.216353 0.209683 0.847362
64 1 0.314759 0.41634 0.594434
65 2 0.309517 0.4447 0.593177
66 2 0.320494 0.413853 0.567241
67 1 0.31777 0.544469 0.300952
68 2 0.316482 0.535507 0.33277
69 2 0.315358 0.576609 0.297281
70 1 0.880644 0.427339 0.249784
71 2 0.872793 0.41307 0.26471
72 2 0.878252 0.458401 0.240691
73 1 0.00869762 0.207916 0.0467926
74 2 0.00736163 0.178183 0.0611883
75 2 0.0138248 0.227785 0.0673902
76 1 0.811887 0.711935 0.488463
77 2 0.804486 0.727123 0.471975
78 2 0.809573 0.710177 0.520844
79 1 0.238871 0.241282 0.753903
80 2 0.24881 0.238236 0.751858
81 2 0.235912 0.234691 0.785054
82 1 0.6139 0.418578 0.232328
83 2 0.617258 0.394117 0.212644
84 2 0.606054 0.433367 0.217894
85 1 0.263205 0.424673 0.626896
86 2 0.255095 0.405243 0.62523
87 2 0.271363 0.405638 0.629935
88 1 0.493799 0.739016 0.851868
89 2 0.501426 0.722374 0.838168
90 2 0.492918 0.730387 0.883931
91 1 0.314724 0.648218 0.267112
92 2 0.309169 0.670219 0.28397
93 2 0.319836 0.664031 0.243223
94 1 0.522232 0.713595 0.889212
95 2 0.521199 0.703347 0.85768
96 2 0.531165 0.728097 0.892992
97 1 0.600078 0.419068 0.312293
98 2 0.606911 0.418336 0.287965
99 2 0.604335 0.429815 0.340476
100 1 0.172434 0.382789 0.536736
101 2 0.178889 0.378523 0.561834
102 2 0.177475 0.389048 0.508637
103 1 0.283125 0.559209 0.65105
104 2 0.286763 0.542605 0.624813
105 2 0.274574 0.574219 0.642492
106 1 0.285741 0.376356 0.61295
107 2 0.289317 0.376984 0.644073
108 2 0.293307 0.372662 0.591467
109 1 0.217239 0.443818 0.67813
110 2 0.216915 0.455433 0.709355
111 2 0.208056 0.444504 0.664954
112 1 0.310211 0.628267 0.138226
113 2 0.303626 0.635436 0.114188
114 2 0.305423 0.614742 0.164176
115 1 0.51292 0.703228 0.798116
116 2 0.508256 0.678336 0.78231
117 2 0.513348 0.729888 0.778159
118 1 0.291011 0.636912 0.0818557
119 2 0.282647 0.618868 0.0789932
120 2 0.291908 0.657008 0.0554299
121 1 0.988673 0.338395 0.044244
122 2 0.988288 0.306332 0.0352187
123 2 0.980306 0.353812 0.0344667
124 1 0.141191 0.317067 0.38041
125 2 0.144372 0.289038 0.365814
126 2 0.135061 0.309426 0.405614
127 1 0.836844 0.68083 0.506812
128 2 0.827877 0.691393 0.496507
129 2 0.841536 0.665504 0.481679
130 1 0.593972 0.482967 0.201562
131 2 0.584519 0.489352 0.192765
132 2 0.595279 0.490727 0.233686
133 1 0.199368 0.491694 0.740879
134 2 0.193005 0.516125 0.748907
135 2 0.206861 0.490968 0.76294
136 1 0.256656 0.513725 0.732308
137 2 0.265917 0.506624 0.742686
138 2 0.256641 0.543362 0.717052
139 1 0.413164 0.699487 0.113538
140 2 0.409475 0.700094 0.0825619
141 2 0.422894 0.691869 0.112469
142 1 0.320656 0.611775 0.046547
143 2 0.32615 0.584471 0.0410455
144 2 0.318942 0.614919 0.0792358
145 1 0.307528 0.302887 0.657075
146 2 0.312374 0.295277 0.628927
147 2 0.300784 0.279194 0.663736
148 1 0.311991 0.341158 0.42636
149 2 0.305456 0.332274 0.402747
150 2 0.309805 0.325272 0.454744
151 1 0.86099 0.38518 0.357007
152 2 0.868333 0.3976 0.37592
153 2 0.864282 0.358058 0.341034
154 1 0.342338 0.711786 0.433803
155 2 0.34301 0.738326 0.41376
156 2 0.339093 0.721417 0.463825
157 1 0.86884 0.650367 0.570155
158 2 0.870329 0.656017 0.602629
159 2 0.866026 0.618694 0.565695
160 1 0.786382 0.0688998 0.262737
161 2 0.778831 0.0475223 0.258204
162 2 0.789179 0.0814872 0.233313
163 1 0.564757 0.393814 0.1519
164 2 0.564479 0.392878 0.185208
165 2 0.556067 0.405542 0.140303
166 1 0.298047 0.280571 0.48972
167 2 0.304981 0.257055 0.4946
168 2 0.293359 0.286927 0.518469
169 1 0.023224 0.260959 0.119848
170 2 0.0275959 0.263516 0.149718
171 2 0.0162513 0.284652 0.116761
172 1 0.127679 0.312963 0.459202
173 2 0.121357 0.32436 0.48238
174 2 0.136753 0.326004 0.464309
175 1 0.569907 0.39522 0.244167
176 2 0.56569 0.425259 0.24751
177 2 0.579728 0.398786 0.238994
178 1 0.348741 0.656396 0.519192
179 2 0.350369 0.635827 0.544855
180 2 0.354442 0.647224 0.493389
181 1 0.304376 0.389276 0.686172
182 2 0.30781 0.35801 0.684587
183 2 0.307929 0.406764 0.660384
184 1 0.74568 0.417513 0.404894
185 2 0.753254 0.437196 0.395608
186 2 0.74395 0.394876 0.381115
187 1 0.858912 0.491244 0.257708
188 2 0.852104 0.472711 0.273603
189 2 0.85466 0.519493 0.247113
190 1 0.32641 0.39579 0.504669
191 2 0.320771 0.392173 0.477379
192 2 0.336023 0.391051 0.496797
193 1 0.844795 0.445136 0.315976
194 2 0.848297 0.41998 0.334469
195 2 0.834796 0.444765 0.316487
196 1 0.24208 0.463613 0.793473
197 2 0.247142 0.485777 0.775166
198 2 0.242649 0.433593 0.779108
199 1 0.252013 0.49906 0.641756
200 2 0.256882 0.474826 0.625619
201 2 0.247871 0.486658 0.669445
202 1 0.190746 0.444917 0.663152
203 2 0.18274 0.454273 0.645506
204 2 0.191812 0.465079 0.689457
205 1 0.570615 0.523048 0.373147
206 2 0.569447 0.544433 0.398418
207 2 0.562594 0.503244 0.371129
208 1 0.798486 0.134801 0.200515
209 2 0.799448 0.143803 0.232449
210 2 0.799853 0.161407 0.180959
211 1 0.51125 0.775908 0.745205
212 2 0.504981 0.793557 0.764259
213 2 0.512872 0.792185 0.716623
214 1 0.298276 0.597374 0.215342
215 2 0.290528 0.585466 0.232725
216 2 0.303172 0.619898 0.233713
217 1 0.217438 0.497802 0.811119
218 2 0.217125 0.504451 0.843766
219 2 0.225781 0.480811 0.804122
220 1 0.851058 0.732071 0.560963
221 2 0.86032 0.720638 0.566196
222 2 0.846681 0.714092 0.536983
223 1 0.190345 0.379693 0.603014
224 2 0.193126 0.350826 0.616865
225 2 0.190598 0.403821 0.625997
226 1 0.303262 0.681685 0.00640813
227 2 0.306061 0.695227 0.977414
228 2 0.309247 0.655962 0.0135856
229 1 0.794069 0.714076 0.575149
230 2 0.785597 0.704526 0.59006
231 2 0.798573 0.737375 0.593667
232 1 0.497474 0.706906 0.939933
233 2 0.507262 0.711272 0.934697
234 2 0.494836 0.721903 0.968374
235 1 0.306496 0.490607 0.223265
236 2 0.313697 0.491576 0.246376
237 2 0.304075 0.521687 0.214318
238 1 0.148317 0.362122 0.48437
239 2 0.152251 0.37367 0.455983
240 2 0.155448 0.36035 0.507674
241 1 0.00807148 0.12284 0.0867734
242 2 0.0142383 0.105686 0.10663
243 2 0.00561469 0.104126 0.060433
244 1 0.214507 0.282952 0.767398
245 2 0.221889 0.274209 0.746682
246 2 0.207946 0.302183 0.75118
247 1 0.38299 0.738069 0.119779
248 2 0.37861 0.741562 0.14954
249 2 0.390677 0.716906 0.122388
250 1 0.876606 0.317711 0.318102
251 2 0.885926 0.323027 0.328953
252 2 0.876692 0.313973 0.28498
253 1 0.234736 0.394967 0.623625
254 2 0.229557 0.419606 0.637976
255 2 0.233151 0.3954 0.590717
256 1 0.49823 0.821685 0.812024
257 2 0.495419 0.792109 0.824213
258 2 0.493499 0.845994 0.828499
259 1 0.3143 0.120462 0.517296
260 2 0.307044 0.112794 0.538916
261 2 0.31972 0.0932326 0.510718
262 1 0.0364953 0.0396288 0.788959
263 2 0.0462808 0.0333828 0.786105
264 2 0.0319988 0.0340091 0.759721
265 1 0.79706 0.149218 0.302261
266 2 0.804032 0.141585 0.324904
267 2 0.791096 0.1229 0.297438
268 1 0.61745 0.359032 0.162532
269 2 0.620334 0.33122 0.146875
270 2 0.610942 0.375612 0.143413
271 1 0.809449 0.758945 0.638076
272 2 0.816626 0.772536 0.61926
273 2 0.813616 0.742306 0.663401
274 1 0.886057 0.409016 0.394867
275 2 0.891673 0.410813 0.422389
276 2 0.891973 0.409053 0.367994
277 1 0.880613 0.3345 0.229688
278 2 0.884706 0.326505 0.200343
279 2 0.882696 0.366301 0.236872
280 1 0.336705 0.738812 0.520355
281 2 0.334762 0.751437 0.550518
282 2 0.341883 0.710486 0.52364
283 1 0.291574 0.480209 0.615975
284 2 0.293687 0.480633 0.648553
285 2 0.282857 0.464624 0.611093
286 1 0.987903 0.259019 0.0092995
287 2 0.993101 0.236672 0.0269489
288 2 0.989219 0.253289 0.976756
289 1 0.328703 0.682092 0.186348
290 2 0.332997 0.703572 0.165258
291 2 0.323879 0.658574 0.169042
292 1 0.150531 0.438553 0.569716
293 2 0.158258 0.424915 0.553542
294 2 0.142562 0.418577 0.567155
295 1 0.210043 0.318945 0.638356
296 2 0.215819 0.307524 0.613659
297 2 0.214109 0.346587 0.651135
298 1 0.282927 0.531104 0.248068
299 2 0.274043 0.519947 0.237591
300 2 0.289151 0.505345 0.25221
ITEM: TIMESTEP
6700
ITEM: NUMBER OF ATOMS
300
ITEM: BOX BOUNDS pp ff pp
0.0000000000000000e+00 1.0000000000000000e+02
0.0000000000000000e+00 3.0000000000000000e+01
0.0000000000000000e+00 3.0000000000000000e+01
ITEM: ATOMS id type xs ys zs
1 1 0.39684 0.752611 0.0378196
2 2 0.391891 0.778472 0.0508629
3 2 0.392263 0.742634 0.00991207
4 1 0.593953 0.399976 0.145489
5 2 0.585414 0.383156 0.14124
6 2 0.592083 0.428468 0.161628
7 1 0.998071 0.292672 0.111891
8 2 0.998434 0.262815 0.097118
9 2 0.999635 0.316518 0.0891908
10 1 0.564097 0.46294 0.264928
11 2 0.571915 0.473065 0.283077
12 2 0.556325 0.456989 0.285042
13 1 0.892443 0.442314 0.313872
14 2 0.887968 0.437902 0.284391
15 2 0.898312 0.469267 0.312502
16 1 0.285784 0.542885 0.743214
17 2 0.285933 0.549551 0.710558
18 2 0.293733 0.524289 0.751161
19 1 0.317145 0.227869 0.502082
20 2 0.315501 0.195646 0.508623
21 2 0.326827 0.232461 0.495117
22 1 0.130481 0.404068 0.545251
23 2 0.121044 0.399252 0.535325
24 2 0.136637 0.385763 0.526413
25 1 0.356725 0.664354 0.434423
26 2 0.351296 0.692034 0.43861
27 2 0.366277 0.672607 0.42903
28 1 0.551515 0.390646 0.354086
29 2 0.547006 0.362285 0.345095
30 2 0.561074 0.389912 0.344326
31 1 0.576217 0.378341 0.321352
32 2 0.578538 0.370921 0.289789
33 2 0.584134 0.392156 0.336307
34 1 0.165513 0.462782 0.671981
35 2 0.159832 0.449078 0.695744
36 2 0.159957 0.468308 0.644823
37 1 0.296081 0.444621 0.743931
38 2 0.288697 0.442198 0.721584
39 2 0.302918 0.42104 0.73796
40 1 0.339742 0.384767 0.436343
41 2 0.332338 0.364766 0.426247
42 2 0.348187 0.376553 0.420489
43 1 0.162385 0.363077 0.42827
44 2 0.156168 0.350665 0.405299
45 2 0.171478 0.366959 0.414953
46 1 0.542658 0.47716 0.347946
47 2 0.533239 0.486175 0.354589
48 2 0.543598 0.444192 0.35174
49 1 0.589565 0.488027 0.289933
50 2 0.594354 0.460298 0.299281
51 2 0.585072 0.501683 0.316398
52 1 0.842648 0.802075 0.629757
53 2 0.845382 0.772991 0.61626
54 2 0.850013 0.824289 0.625908
55 1 0.674887 0.746189 0.870101
56 2 0.666134 0.735006 0.881712
57 2 0.676755 0.776335 0.882889
58 1 0.257537 0.589469 0.646693
59 2 0.254489 0.608746 0.621469
60 2 0.252754 0.560223 0.645447
61 1 0.214872 0.225208 0.80493
62 2 0.209182 0.252077 0.799503
63 2 0.211123 0.207753 0.83043
64 1 0.305779 0.384904 0.570874
65 2 0.302945 0.414507 0.582935
66 2 0.313192 0.389224 0.548923
67 1 0.320641 0.568945 0.287017
68 2 0.325784 0.566804 0.315523
69 2 0.319625 0.600985 0.278468
70 1 0.876503 0.422231 0.241252
71 2 0.871194 0.401827 0.260786
72 2 0.872739 0.453056 0.243123
73 1 0.00849879 0.199666 0.0509838
74 2 0.00702598 0.166977 0.0552798
75 2 0.0151845 0.210573 0.0732432
76 1 0.81675 0.715029 0.476947
77 2 0.811881 0.703539 0.450196
78 2 0.810816 0.71293 0.503695
79 1 0.231856 0.246237 0.73932
80 2 0.240541 0.230062 0.735955
81 2 0.226402 0.231639 0.763143
82 1 0.608288 0.425858 0.241794
83 2 0.613987 0.401128 0.230022
84 2 0.607134 0.449103 0.218216
85 1 0.266002 0.409378 0.609453
86 2 0.257176 0.396403 0.618247
87 2 0.272404 0.384759 0.602406
88 1 0.490927 0.751786 0.855115
89 2 0.494778 0.730826 0.832598
90 2 0.489376 0.735526 0.88375
91 1 0.314606 0.651825 0.262926
92 2 0.316949 0.682908 0.272089
93 2 0.316415 0.647993 0.230367
94 1 0.514726 0.652078 0.885498
95 2 0.511234 0.670626 0.860366
96 2 0.523669 0.639648 0.877255
97 1 0.606486 0.418095 0.329527
98 2 0.609028 0.419203 0.297307
99 2 0.610361 0.390715 0.343477
100 1 0.168621 0.362143 0.560641
101 2 0.170258 0.369862 0.592607
102 2 0.177241 0.353177 0.546318
103 1 0.284912 0.579801 0.656534
104 2 0.290971 0.605707 0.650874
105 2 0.275684 0.590899 0.663001
106 1 0.285684 0.340352 0.619988
107 2 0.287643 0.355404 0.649004
108 2 0.292081 0.351219 0.596787
109 1 0.215807 0.416784 0.674592
110 2 0.222923 0.429211 0.694441
111 2 0.207856 0.436999 0.674951
112 1 0.306636 0.621277 0.119796
113 2 0.301375 0.638781 0.0974966
114 2 0.302191 0.623235 0.149591
115 1 0.505607 0.697112 0.801597
116 2 0.502301 0.67566 0.778587
117 2 0.510913 0.721175 0.786789
118 1 0.290126 0.665328 0.064412
119 2 0.281837 0.656497 0.0479921
120 2 0.296955 0.676386 0.0427156
121 1 0.997123 0.339827 0.0241168
122 2 0.991617 0.312003 0.0238193
123 2 0.993077 0.362255 0.00347239
124 1 0.142875 0.324682 0.37264
125 2 0.139545 0.327184 0.341309
126 2 0.135132 0.325869 0.3937
127 1 0.841972 0.694879 0.506696
128 2 0.832682 0.70426 0.49869
129 2 0.846498 0.682241 0.479792
130 1 0.591747 0.483982 0.193208
131 2 0.591325 0.513755 0.178287
132 2 0.590729 0.487885 0.226138
133 1 0.207957 0.510707 0.723007
134 2 0.213722 0.537496 0.71809
135 2 0.20875 0.50081 0.754728
136 1 0.257581 0.531224 0.734468
137 2 0.265446 0.549315 0.744285
138 2 0.256632 0.533305 0.70135
139 1 0.409552 0.714772 0.103823
140 2 0.404 0.729942 0.0806168
141 2 0.417365 0.734058 0.11162
142 1 0.317453 0.599171 0.0418396
143 2 0.318079 0.567909 0.0304622
144 2 0.31129 0.600099 0.068074
145 1 0.307493 0.303672 0.679165
146 2 0.306326 0.278204 0.700316
147 2 0.302526 0.297305 0.650943
148 1 0.314341 0.346803 0.420233
149 2 0.309962 0.376491 0.424317
150 2 0.308209 0.322792 0.431044
151 1 0.855367 0.410405 0.362122
152 2 0.861521 0.414089 0.388136
153 2 0.858427 0.384724 0.343479
154 1 0.34888 0.742557 0.444076
155 2 0.34669 0.767467 0.423165
156 2 0.344929 0.748967 0.474019
157 1 0.859275 0.635946 0.608022
158 2 0.868345 0.630009 0.595298
159 2 0.858274 0.61955 0.636852
160 1 0.789178 0.059222 0.244933
161 2 0.784603 0.0338175 0.229663
162 2 0.793972 0.0777924 0.222331
163 1 0.565107 0.367937 0.149519
164 2 0.569282 0.380402 0.177123
165 2 0.556907 0.385462 0.141971
166 1 0.296027 0.279222 0.477545
167 2 0.304328 0.264131 0.488398
168 2 0.290229 0.287035 0.503557
169 1 0.022919 0.268304 0.129044
170 2 0.0289675 0.292861 0.139124
171 2 0.013836 0.280701 0.12266
172 1 0.130517 0.298753 0.457845
173 2 0.128383 0.26996 0.473061
174 2 0.137864 0.314262 0.474301
175 1 0.578791 0.399057 0.227418
176 2 0.572694 0.423481 0.237499
177 2 0.587585 0.412045 0.218307
178 1 0.348188 0.635511 0.515387
179 2 0.34579 0.603194 0.513696
180 2 0.350461 0.646692 0.484913
181 1 0.314214 0.388794 0.677527
182 2 0.312334 0.356055 0.677367
183 2 0.319336 0.396972 0.650091
184 1 0.748671 0.405493 0.393571
185 2 0.743931 0.424619 0.415835
186 2 0.758177 0.415473 0.390851
187 1 0.85043 0.465766 0.244453
188 2 0.843438 0.455211 0.265819
189 2 0.849365 0.498527 0.239431
190 1 0.32686 0.382127 0.51662
191 2 0.329477 0.352322 0.528732
192 2 0.333099 0.390632 0.491996
193 1 0.833933 0.433799 0.310997
194 2 0.84035 0.427054 0.335657
195 2 0.828525 0.406604 0.304178
196 1 0.246156 0.484272 0.807339
197 2 0.251324 0.507268 0.790443
198 2 0.248444 0.453955 0.795772
199 1 0.250698 0.506146 0.628484
200 2 0.243654 0.482989 0.633338
201 2 0.258534 0.492406 0.612992
202 1 0.191772 0.458822 0.668518
203 2 0.181778 0.459859 0.667981
204 2 0.195194 0.480089 0.691511
205 1 0.570471 0.516262 0.353017
206 2 0.568533 0.548964 0.353141
207 2 0.561981 0.499328 0.357867
208 1 0.801932 0.151938 0.228003
209 2 0.801342 0.143573 0.26021
210 2 0.805395 0.183092 0.2253
211 1 0.513751 0.781098 0.762798
212 2 0.506874 0.795592 0.782176
213 2 0.518862 0.804531 0.74631
214 1 0.297012 0.593906 0.205776
215 2 0.290027 0.570681 0.211209
216 2 0.303999 0.592063 0.229552
217 1 0.217865 0.48437 0.809855
218 2 0.216257 0.503449 0.836657
219 2 0.227703 0.481664 0.804525
220 1 0.850425 0.721436 0.58553
221 2 0.852457 0.689683 0.593078
222 2 0.844705 0.722539 0.558211
223 1 0.18347 0.368255 0.635131
224 2 0.190997 0.347452 0.642113
225 2 0.186167 0.399446 0.642707
226 1 0.307893 0.680514 0.991991
227 2 0.315111 0.69693 0.975782
228 2 0.31108 0.649832 -0.00046643
229 1 0.800958 0.718782 0.558418
230 2 0.795366 0.700647 0.579272
231 2 0.804756 0.744949 0.574731
232 1 0.494561 0.696371 0.926173
233 2 0.501112 0.673447 0.915737
234 2 0.497128 0.706797 0.956656
235 1 0.316047 0.507412 0.225027
236 2 0.317459 0.530338 0.248762
237 2 0.31836 0.520426 0.195324
238 1 0.147364 0.357296 0.497787
239 2 0.152899 0.36375 0.470787
240 2 0.153351 0.353281 0.524183
241 1 0.00642337 0.116004 0.0909769
242 2 0.0129625 0.0915543 0.0971567
243 2 0.00224021 0.125949 0.119574
244 1 0.204529 0.31242 0.770063
245 2 0.210482 0.297903 0.747554
246 2 0.209045 0.339525 0.782304
247 1 0.382157 0.696037 0.127209
248 2 0.379893 0.690993 0.159282
249 2 0.392095 0.696453 0.123521
250 1 0.871949 0.361501 0.303468
251 2 0.880592 0.366442 0.31949
252 2 0.872802 0.335039 0.283399
253 1 0.238129 0.403454 0.612822
254 2 0.230271 0.40651 0.633212
255 2 0.234984 0.394107 0.582592
256 1 0.497051 0.826731 0.816557
257 2 0.495383 0.79913 0.834399
258 2 0.492417 0.852544 0.830917
259 1 0.312868 0.140351 0.557878
260 2 0.320353 0.124723 0.542245
261 2 0.304923 0.120173 0.559469
262 1 0.0400057 0.0393167 0.744544
263 2 0.0347023 0.0639247 0.73065
264 2 0.0338132 0.0152597 0.754854
265 1 0.802513 0.131516 0.315174
266 2 0.804616 0.140923 0.346375
267 2 0.79818 0.101478 0.315606
268 1 0.616105 0.349696 0.175649
269 2 0.619165 0.323682 0.157475
270 2 0.608905 0.365993 0.15923
271 1 0.814244 0.778874 0.629895
272 2 0.823576 0.79003 0.625517
273 2 0.812621 0.773502 0.662344
274 1 0.885779 0.388891 0.384155
275 2 0.893984 0.372031 0.393032
276 2 0.88791 0.408827 0.358403
277 1 0.889741 0.318304 0.2353
278 2 0.897232 0.301973 0.220436
279 2 0.890283 0.350698 0.227655
280 1 0.338305 0.728642 0.523933
281 2 0.329718 0.730139 0.540948
282 2 0.342592 0.698926 0.528822
283 1 0.290743 0.469667 0.592162
284 2 0.289771 0.497356 0.610436
285 2 0.282147 0.452637 0.592622
286 1 0.987412 0.242331 0.0223379
287 2 0.995766 0.225516 0.0296193
288 2 0.982978 0.228426 0.995894
289 1 0.328831 0.633822 0.179939
290 2 0.337183 0.62082 0.167011
291 2 0.321114 0.627269 0.15978
292 1 0.153605 0.448174 0.581862
293 2 0.159751 0.441841 0.556341
294 2 0.144509 0.436124 0.575026
295 1 0.210149 0.33785 0.638582
296 2 0.21714 0.315225 0.646076
297 2 0.212236 0.366521 0.654096
298 1 0.288783 0.499465 0.244978
299 2 0.289783 0.494678 0.277797
300 2 0.297825 0.502626 0.231093
ITEM: TIMESTEP
6800
ITEM: NUMBER OF ATOMS
300
ITEM: BOX BOUNDS pp ff pp
0.0000000000000000e+00 1.0000000000000000e+02
0.0000000000000000e+00 3.0000000000000000e+01
0.0000000000000000e+00 3.0000000000000000e+01
ITEM: ATOMS id type xs ys zs
1 1 0.397719 0.766201 0.0469975
2 2 0.396178 0.78905 0.0232768
3 2 0.389105 0.750765 0.0539568
4 1 0.599771 0.426201 0.129581
5 2 0.591997 0.405482 0.126356
6 2 0.598455 0.445371 0.156496
7 1 0.998982 0.305376 0.101252
8 2 0.98934 0.2992 0.107585
9 2 -0.000179519 0.320423 0.0716398
10 1 0.562878 0.462406 0.246701
11 2 0.555108 0.463161 0.267667
12 2 0.564014 0.492388 0.232633
13 1 0.888728 0.481322 0.315907
14 2 0.898149 0.471256 0.311043
15 2 0.883544 0.477874 0.287613
16 1 0.294622 0.542553 0.746518
17 2 0.289336 0.557646 0.722584
18 2 0.299287 0.515963 0.733778
19 1 0.316976 0.211434 0.490598
20 2 0.31248 0.197089 0.51669
21 2 0.321686 0.188162 0.472627
22 1 0.127791 0.410399 0.546201
23 2 0.118501 0.401538 0.53762
24 2 0.134376 0.392624 0.528499
25 1 0.358223 0.689781 0.404748
26 2 0.355989 0.721122 0.413316
27 2 0.363079 0.689776 0.37561
28 1 0.547244 0.402601 0.385063
29 2 0.541434 0.37747 0.37484
30 2 0.55684 0.394806 0.379855
31 1 0.573575 0.413347 0.335325
32 2 0.570654 0.428785 0.307432
33 2 0.583545 0.410785 0.335585
34 1 0.170253 0.473975 0.655095
35 2 0.165136 0.502391 0.658662
36 2 0.163858 0.448539 0.65197
37 1 0.297249 0.452665 0.718247
38 2 0.294046 0.451617 0.749807
39 2 0.301337 0.423342 0.710148
40 1 0.333952 0.36223 0.472368
41 2 0.327756 0.357447 0.446644
42 2 0.342437 0.376105 0.461477
43 1 0.160046 0.351118 0.433868
44 2 0.15098 0.347074 0.420402
45 2 0.166668 0.357848 0.409813
46 1 0.543431 0.475434 0.327047
47 2 0.534414 0.487109 0.335504
48 2 0.54619 0.451752 0.348628
49 1 0.595689 0.497132 0.291652
50 2 0.600867 0.478378 0.313135
51 2 0.586608 0.503342 0.304152
52 1 0.849831 0.787741 0.637228
53 2 0.847867 0.756157 0.628817
54 2 0.859651 0.793407 0.634514
55 1 0.677364 0.730264 0.891191
56 2 0.675805 0.71017 0.865108
57 2 0.672022 0.758189 0.887423
58 1 0.257614 0.577275 0.666172
59 2 0.248965 0.593996 0.666768
60 2 0.256148 0.54718 0.652699
61 1 0.208359 0.243084 0.796979
62 2 0.205619 0.273569 0.806896
63 2 0.204181 0.22028 0.816907
64 1 0.304651 0.374408 0.548345
65 2 0.29888 0.400055 0.539217
66 2 0.31411 0.384746 0.551513
67 1 0.331459 0.558571 0.322947
68 2 0.339799 0.555087 0.341007
69 2 0.330719 0.590066 0.312314
70 1 0.872168 0.439727 0.251188
71 2 0.87457 0.408766 0.26059
72 2 0.862844 0.439995 0.239146
73 1 0.00532434 0.187071 0.0688247
74 2 0.00576974 0.156208 0.0813301
75 2 0.00843713 0.208879 0.0917998
76 1 0.825856 0.725555 0.48749
77 2 0.82373 0.709268 0.459283
78 2 0.818666 0.719838 0.509942
79 1 0.21551 0.273722 0.70818
80 2 0.223265 0.260188 0.692065
81 2 0.211442 0.25102 0.728472
82 1 0.603555 0.387511 0.241722
83 2 0.608869 0.367576 0.221724
84 2 0.600842 0.414867 0.22496
85 1 0.265425 0.401251 0.58642
86 2 0.256736 0.40384 0.602715
87 2 0.268689 0.369784 0.588029
88 1 0.495046 0.754315 0.876337
89 2 0.493589 0.732806 0.851339
90 2 0.493778 0.738648 0.905454
91 1 0.319393 0.635177 0.267145
92 2 0.309911 0.645744 0.267754
93 2 0.322073 0.628661 0.235699
94 1 0.49538 0.633744 0.855851
95 2 0.500029 0.64966 0.830999
96 2 0.499494 0.603649 0.860029
97 1 0.60194 0.417418 0.342099
98 2 0.604305 0.404975 0.312197
99 2 0.604178 0.395122 0.365728
100 1 0.167069 0.352437 0.579106
101 2 0.167976 0.348239 0.612036
102 2 0.175586 0.364872 0.566838
103 1 0.285031 0.567084 0.643889
104 2 0.288385 0.57857 0.614662
105 2 0.275747 0.578301 0.649129
106 1 0.289956 0.349723 0.616196
107 2 0.291092 0.369604 0.642682
108 2 0.295481 0.361258 0.590922
109 1 0.218231 0.410307 0.696115
110 2 0.222698 0.430221 0.718314
111 2 0.208492 0.417706 0.694571
112 1 0.303038 0.624125 0.102545
113 2 0.297882 0.649851 0.0901384
114 2 0.29669 0.60174 0.115286
115 1 0.504666 0.677897 0.787276
116 2 0.510917 0.66481 0.764789
117 2 0.507271 0.709491 0.793404
118 1 0.28997 0.691495 0.0454514
119 2 0.286717 0.722887 0.0426054
120 2 0.294155 0.681912 0.0167346
121 1 0.999429 0.324753 0.003622
122 2 0.997844 0.291885 0.00532841
123 2 0.00337717 0.332365 0.973958
124 1 0.14101 0.32286 0.368003
125 2 0.13831 0.302358 0.34331
126 2 0.136704 0.312998 0.396424
127 1 0.85147 0.713748 0.511871
128 2 0.842418 0.723163 0.501288
129 2 0.858437 0.725327 0.490949
130 1 0.592323 0.46464 0.207564
131 2 0.582782 0.47462 0.207643
132 2 0.596908 0.476014 0.234917
133 1 0.209817 0.51377 0.726391
134 2 0.216332 0.530712 0.707617
135 2 0.214109 0.505712 0.755399
136 1 0.265701 0.525983 0.751708
137 2 0.275319 0.518957 0.757537
138 2 0.264506 0.53385 0.719563
139 1 0.409327 0.728674 0.119594
140 2 0.405957 0.73792 0.0896026
141 2 0.41775 0.745244 0.126535
142 1 0.312606 0.596719 0.0177961
143 2 0.318929 0.570921 0.0189186
144 2 0.308043 0.599932 0.0472836
145 1 0.303858 0.292495 0.705411
146 2 0.307974 0.265951 0.720184
147 2 0.294131 0.286783 0.700196
148 1 0.310155 0.355654 0.409609
149 2 0.301693 0.372252 0.403291
150 2 0.308663 0.334514 0.434897
151 1 0.846906 0.407975 0.349418
152 2 0.851259 0.432205 0.367122
153 2 0.853749 0.385169 0.341014
154 1 0.353603 0.769029 0.441169
155 2 0.353586 0.802311 0.443016
156 2 0.350574 0.756269 0.470261
157 1 0.849356 0.606928 0.611768
158 2 0.857392 0.600189 0.59311
159 2 0.844037 0.579057 0.61623
160 1 0.793512 0.0502056 0.249609
161 2 0.790308 0.018874 0.245688
162 2 0.794421 0.0647297 0.21976
163 1 0.574549 0.341587 0.154277
164 2 0.574767 0.346327 0.187264
165 2 0.572449 0.309649 0.147793
166 1 0.303161 0.301791 0.480434
167 2 0.308852 0.274541 0.483379
168 2 0.302633 0.317337 0.509867
169 1 0.0200879 0.248173 0.129353
170 2 0.0290729 0.262806 0.129498
171 2 0.0132472 0.269649 0.117953
172 1 0.13484 0.287639 0.455079
173 2 0.133804 0.255214 0.461993
174 2 0.137757 0.303876 0.482518
175 1 0.576631 0.371411 0.234595
176 2 0.571218 0.397987 0.2435
177 2 0.586273 0.377009 0.241426
178 1 0.351632 0.640532 0.48104
179 2 0.359213 0.624339 0.495546
180 2 0.354016 0.64748 0.449423
181 1 0.308968 0.377801 0.691477
182 2 0.309027 0.344516 0.693261
183 2 0.317816 0.389639 0.701528
184 1 0.756281 0.389861 0.394141
185 2 0.753097 0.407526 0.367941
186 2 0.754523 0.357481 0.388818
187 1 0.846074 0.443957 0.215303
188 2 0.839618 0.441503 0.240642
189 2 0.843819 0.470712 0.196897
190 1 0.332493 0.395203 0.550332
191 2 0.342069 0.403895 0.554426
192 2 0.331285 0.381588 0.520174
193 1 0.827768 0.429735 0.285502
194 2 0.835295 0.420139 0.305235
195 2 0.819895 0.409774 0.290398
196 1 0.24746 0.510001 0.816607
197 2 0.253766 0.516589 0.791589
198 2 0.252432 0.495138 0.841418
199 1 0.251836 0.497218 0.632946
200 2 0.243491 0.478955 0.630999
201 2 0.259306 0.481205 0.617627
202 1 0.19351 0.451781 0.686545
203 2 0.185164 0.464074 0.672904
204 2 0.198599 0.476401 0.701281
205 1 0.570595 0.515696 0.335157
206 2 0.568835 0.531558 0.363882
207 2 0.563006 0.495028 0.328513
208 1 0.8046 0.152176 0.231192
209 2 0.801943 0.151535 0.26332
210 2 0.811976 0.174268 0.226884
211 1 0.515105 0.768304 0.79426
212 2 0.507914 0.791465 0.794537
213 2 0.52343 0.780873 0.807788
214 1 0.296404 0.550983 0.154368
215 2 0.287804 0.5341 0.152283
216 2 0.300461 0.54624 0.184463
217 1 0.221394 0.492801 0.803092
218 2 0.218009 0.493129 0.834454
219 2 0.231261 0.498236 0.803061
220 1 0.847372 0.707363 0.599954
221 2 0.846638 0.675528 0.609529
222 2 0.848145 0.708812 0.566753
223 1 0.183761 0.362578 0.667348
224 2 0.192549 0.352563 0.654993
225 2 0.185118 0.389893 0.685909
226 1 0.301268 0.656832 0.971316
227 2 0.305371 0.667002 0.94267
228 2 0.306932 0.632875 0.984755
229 1 0.807202 0.739976 0.552083
230 2 0.807662 0.715238 0.574371
231 2 0.811436 0.767336 0.564862
232 1 0.488329 0.685348 0.927398
233 2 0.487616 0.667015 0.899661
234 2 0.484957 0.667723 0.953363
235 1 0.315576 0.542343 0.230994
236 2 0.322371 0.543443 0.255422
237 2 0.317813 0.565185 0.207891
238 1 0.146968 0.358468 0.508469
239 2 0.15342 0.364219 0.48366
240 2 0.15202 0.352366 0.536581
241 1 0.00830219 0.10455 0.101478
242 2 0.0156292 0.0885448 0.0854019
243 2 0.0112193 0.111208 0.132658
244 1 0.205496 0.344049 0.759386
245 2 0.197167 0.344838 0.740954
246 2 0.212846 0.329653 0.741962
247 1 0.389107 0.678241 0.150383
248 2 0.39089 0.661703 0.178708
249 2 0.395928 0.702318 0.146595
250 1 0.871956 0.35505 0.32621
251 2 0.876584 0.371434 0.350801
252 2 0.878755 0.339874 0.307045
253 1 0.237306 0.406332 0.62406
254 2 0.229999 0.403107 0.646585
255 2 0.235012 0.388703 0.596824
256 1 0.494973 0.82824 0.818488
257 2 0.495717 0.807068 0.844114
258 2 0.490795 0.856685 0.828884
259 1 0.308499 0.189034 0.584011
260 2 0.306516 0.220757 0.576198
261 2 0.314234 0.188064 0.611301
262 1 0.0422774 0.0390387 0.695305
263 2 0.0354005 0.0253362 0.715252
264 2 0.0486075 0.0573032 0.713534
265 1 0.800683 0.108769 0.323649
266 2 0.798577 0.0973301 0.354161
267 2 0.798793 0.084995 0.301149
268 1 0.614288 0.360956 0.162326
269 2 0.621057 0.348386 0.141253
270 2 0.609165 0.385225 0.147142
271 1 0.815759 0.804165 0.625984
272 2 0.825701 0.801415 0.628286
273 2 0.812949 0.834498 0.636147
274 1 0.885053 0.414008 0.37604
275 2 0.894243 0.403999 0.384556
276 2 0.885366 0.445847 0.366225
277 1 0.887115 0.327554 0.254764
278 2 0.879394 0.318595 0.235571
279 2 0.895529 0.32688 0.236763
280 1 0.340202 0.723671 0.506967
281 2 0.331304 0.714854 0.519362
282 2 0.345377 0.696311 0.498903
283 1 0.287155 0.453535 0.569136
284 2 0.291396 0.454996 0.599288
285 2 0.278922 0.434677 0.570634
286 1 0.990684 0.234058 0.00345731
287 2 0.995531 0.223382 0.0305891
288 2 0.989229 0.208486 0.982633
289 1 0.321393 0.605247 0.166088
290 2 0.330355 0.599004 0.152682
291 2 0.314694 0.609906 0.141783
292 1 0.151055 0.424607 0.613581
293 2 0.156721 0.405187 0.59416
294 2 0.141656 0.42459 0.602197
295 1 0.209991 0.340905 0.649015
296 2 0.20992 0.311157 0.664053
297 2 0.213529 0.363902 0.670066
298 1 0.295451 0.490296 0.2469
299 2 0.296351 0.467802 0.271315
300 2 0.303615 0.50953 0.246108
ITEM: TIMESTEP
6900
ITEM: NUMBER OF ATOMS
300
ITEM: BOX BOUNDS pp ff pp
0.0000000000000000e+00 1.0000000000000000e+02
0.0000000000000000e+00 3.0000000000000000e+01
0.0000000000000000e+00 3.0000000000000000e+01
ITEM: ATOMS id type xs ys zs
1 1 0.39647 0.770279 0.0557417
2 2 0.401925 0.789438 0.0354063
3 2 0.390852 0.749492 0.0376248
4 1 0.601236 0.423893 0.128715
5 2 0.596816 0.398724 0.112573
6 2 0.595403 0.433836 0.153899
7 1 0.00816531 0.343158 0.0917215
8 2 0.00980834 0.375911 0.0888223
9 2 0.0033163 0.332164 0.0647219
10 1 0.568547 0.445121 0.285803
11 2 0.559237 0.456952 0.288644
12 2 0.575032 0.467771 0.297244
13 1 0.886553 0.510736 0.303909
14 2 0.893969 0.497786 0.285677
15 2 0.877848 0.50611 0.288169
16 1 0.293018 0.516314 0.725364
17 2 0.301989 0.526171 0.714419
18 2 0.291861 0.483756 0.719343
19 1 0.311662 0.216884 0.512859
20 2 0.311673 0.217767 0.546181
21 2 0.303332 0.201852 0.502173
22 1 0.131208 0.389079 0.542113
23 2 0.126224 0.39199 0.513362
24 2 0.140035 0.37445 0.536511
25 1 0.356256 0.703246 0.385526
26 2 0.355557 0.729087 0.406453
27 2 0.35222 0.711482 0.356162
28 1 0.548194 0.438466 0.391424
29 2 0.542554 0.411667 0.397713
30 2 0.557793 0.429354 0.389347
31 1 0.57298 0.410653 0.370055
32 2 0.571002 0.418917 0.338442
33 2 0.582346 0.399185 0.37226
34 1 0.167399 0.476145 0.641607
35 2 0.164513 0.507918 0.644611
36 2 0.159371 0.456294 0.64258
37 1 0.298803 0.435049 0.689638
38 2 0.302615 0.447922 0.661639
39 2 0.303535 0.406607 0.696946
40 1 0.333775 0.35148 0.469777
41 2 0.332387 0.376081 0.447766
42 2 0.326869 0.327845 0.465027
43 1 0.158547 0.366195 0.442713
44 2 0.152126 0.341757 0.43524
45 2 0.164506 0.371948 0.41657
46 1 0.543426 0.471338 0.304912
47 2 0.534115 0.481631 0.298433
48 2 0.544547 0.467326 0.337791
49 1 0.591816 0.501609 0.28944
50 2 0.597755 0.484953 0.310461
51 2 0.588362 0.529068 0.304423
52 1 0.844624 0.766258 0.651453
53 2 0.845701 0.740645 0.630423
54 2 0.850256 0.761128 0.678515
55 1 0.679193 0.71407 0.908107
56 2 0.68808 0.720842 0.894409
57 2 0.671974 0.728883 0.890425
58 1 0.258189 0.577817 0.673921
59 2 0.248566 0.583791 0.680736
60 2 0.258911 0.550727 0.654648
61 1 0.202694 0.274764 0.790558
62 2 0.201656 0.306057 0.779608
63 2 0.199164 0.272512 0.821664
64 1 0.311722 0.366247 0.561457
65 2 0.304286 0.388527 0.561896
66 2 0.320504 0.382187 0.561775
67 1 0.339026 0.567554 0.311354
68 2 0.341566 0.557914 0.342119
69 2 0.337573 0.600531 0.310982
70 1 0.865334 0.450774 0.274152
71 2 0.863448 0.427435 0.297105
72 2 0.861001 0.442215 0.245356
73 1 0.00341194 0.164495 0.0605024
74 2 0.0045406 0.13721 0.0792768
75 2 0.00410031 0.191621 0.0797388
76 1 0.83307 0.727181 0.478837
77 2 0.826925 0.716251 0.45492
78 2 0.827799 0.733642 0.506417
79 1 0.20814 0.26526 0.678341
80 2 0.198494 0.266584 0.669653
81 2 0.208945 0.252776 0.709132
82 1 0.599124 0.36811 0.244612
83 2 0.605497 0.35056 0.225856
84 2 0.599635 0.400309 0.236158
85 1 0.265815 0.390203 0.613031
86 2 0.256277 0.39371 0.622413
87 2 0.266329 0.369183 0.587218
88 1 0.497567 0.750554 0.887897
89 2 0.505909 0.733853 0.880222
90 2 0.490613 0.729172 0.898698
91 1 0.32298 0.665727 0.28737
92 2 0.322681 0.67841 0.25656
93 2 0.314798 0.647315 0.292692
94 1 0.479689 0.62931 0.832242
95 2 0.487258 0.645823 0.818034
96 2 0.475724 0.608098 0.810185
97 1 0.598487 0.404636 0.326962
98 2 0.596214 0.387702 0.299268
99 2 0.608424 0.407008 0.329824
100 1 0.166902 0.356422 0.605471
101 2 0.16813 0.329862 0.625192
102 2 0.173386 0.380226 0.614268
103 1 0.281277 0.606638 0.614429
104 2 0.275973 0.598783 0.641574
105 2 0.275073 0.616074 0.590048
106 1 0.285944 0.323869 0.626039
107 2 0.28201 0.354004 0.631601
108 2 0.292735 0.325931 0.601657
109 1 0.219326 0.426085 0.699366
110 2 0.220304 0.428187 0.732473
111 2 0.210589 0.439464 0.690199
112 1 0.306869 0.603124 0.0875618
113 2 0.300974 0.629745 0.0916114
114 2 0.301901 0.575625 0.096551
115 1 0.502982 0.673523 0.786843
116 2 0.510581 0.654428 0.776604
117 2 0.506542 0.702403 0.798515
118 1 0.294813 0.688718 0.0559423
119 2 0.300348 0.716457 0.057039
120 2 0.292587 0.681556 0.0242443
121 1 0.999489 0.303552 0.015932
122 2 0.996294 0.272713 0.0227658
123 2 0.999158 0.308647 0.983009
124 1 0.139024 0.316509 0.385963
125 2 0.140225 0.287713 0.369658
126 2 0.136427 0.310284 0.417545
127 1 0.85759 0.723663 0.52773
128 2 0.857371 0.713259 0.496071
129 2 0.854532 0.755363 0.529246
130 1 0.590653 0.455519 0.209774
131 2 0.581032 0.446806 0.212347
132 2 0.592952 0.476997 0.234086
133 1 0.202898 0.509385 0.748227
134 2 0.206088 0.540908 0.746146
135 2 0.207625 0.493972 0.773233
136 1 0.270023 0.542195 0.758522
137 2 0.279127 0.532664 0.74855
138 2 0.265757 0.560689 0.734713
139 1 0.408504 0.739252 0.135537
140 2 0.403731 0.744902 0.106795
141 2 0.413216 0.767024 0.145188
142 1 0.312265 0.590644 0.992965
143 2 0.320262 0.572135 0.985355
144 2 0.311187 0.591862 0.0260815
145 1 0.293091 0.283026 0.709072
146 2 0.285596 0.278099 0.730582
147 2 0.289348 0.289792 0.678911
148 1 0.309517 0.34506 0.390193
149 2 0.312842 0.315988 0.378232
150 2 0.303547 0.339453 0.416342
151 1 0.839474 0.411077 0.345204
152 2 0.837076 0.424563 0.374621
153 2 0.848826 0.399337 0.346468
154 1 0.352497 0.769977 0.441434
155 2 0.35334 0.79952 0.456614
156 2 0.35125 0.746085 0.464304
157 1 0.839395 0.602448 0.615031
158 2 0.831688 0.610638 0.634627
159 2 0.839161 0.569714 0.60879
160 1 0.796634 0.0345114 0.263401
161 2 0.795943 0.00326757 0.252015
162 2 0.795764 0.0558503 0.237958
163 1 0.584335 0.333601 0.136352
164 2 0.579232 0.345058 0.162629
165 2 0.583538 0.300401 0.135014
166 1 0.304099 0.310707 0.490732
167 2 0.30795 0.280033 0.493055
168 2 0.306941 0.328744 0.517114
169 1 0.00763026 0.246379 0.118524
170 2 0.0106573 0.258273 0.147983
171 2 0.00870659 0.269935 0.0952134
172 1 0.132799 0.297005 0.470777
173 2 0.124 0.284027 0.479854
174 2 0.13748 0.309072 0.497648
175 1 0.57219 0.352627 0.218315
176 2 0.566361 0.371548 0.237698
177 2 0.581562 0.35324 0.229924
178 1 0.348864 0.649772 0.45061
179 2 0.353995 0.621247 0.448399
180 2 0.351214 0.669448 0.424869
181 1 0.31365 0.351205 0.698396
182 2 0.305599 0.334227 0.708529
183 2 0.317807 0.335604 0.672402
184 1 0.76517 0.381898 0.39173
185 2 0.771214 0.356043 0.397791
186 2 0.760408 0.377076 0.362819
187 1 0.847638 0.433811 0.201079
188 2 0.839078 0.421534 0.213173
189 2 0.845713 0.452324 0.174112
190 1 0.335134 0.40732 0.549122
191 2 0.342582 0.422822 0.565072
192 2 0.338791 0.391148 0.522646
193 1 0.825147 0.413731 0.258084
194 2 0.830311 0.417889 0.286324
195 2 0.816501 0.398387 0.264797
196 1 0.253705 0.510088 0.825704
197 2 0.258997 0.521347 0.799759
198 2 0.25893 0.486529 0.841598
199 1 0.258233 0.498151 0.629039
200 2 0.258727 0.468315 0.643812
201 2 0.256412 0.494123 0.596511
202 1 0.193377 0.453354 0.682446
203 2 0.184643 0.460903 0.668071
204 2 0.195678 0.476721 0.704946
205 1 0.566557 0.544252 0.318945
206 2 0.560047 0.56849 0.311687
207 2 0.561613 0.517666 0.330465
208 1 0.803057 0.126454 0.224069
209 2 0.800982 0.123769 0.256566
210 2 0.812885 0.131101 0.220031
211 1 0.516979 0.744177 0.815506
212 2 0.510897 0.767073 0.802247
213 2 0.525209 0.759068 0.827201
214 1 0.29658 0.531037 0.122409
215 2 0.291829 0.523534 0.150763
216 2 0.303023 0.506675 0.114896
217 1 0.228669 0.522038 0.805567
218 2 0.224727 0.543714 0.827214
219 2 0.238233 0.516372 0.813484
220 1 0.851871 0.681354 0.608946
221 2 0.849694 0.648836 0.607965
222 2 0.853456 0.692499 0.577978
223 1 0.190983 0.367409 0.664011
224 2 0.200078 0.359155 0.652876
225 2 0.191238 0.398196 0.676763
226 1 0.294076 0.649609 0.96773
227 2 0.286729 0.635659 0.949931
228 2 0.301895 0.628864 0.968936
229 1 0.816846 0.759145 0.553087
230 2 0.807114 0.763673 0.55926
231 2 0.822253 0.774542 0.576522
232 1 0.483148 0.674052 0.911168
233 2 0.481139 0.657531 0.883001
234 2 0.481466 0.654156 0.937318
235 1 0.316939 0.55232 0.239568
236 2 0.322746 0.562212 0.26484
237 2 0.317593 0.57433 0.214629
238 1 0.152572 0.335981 0.525836
239 2 0.156609 0.348507 0.498029
240 2 0.158966 0.339785 0.551181
241 1 0.0105093 0.0786116 0.116474
242 2 0.00537339 0.0532102 0.12962
243 2 0.0202964 0.0736319 0.121165
244 1 0.193728 0.382446 0.763735
245 2 0.185038 0.397464 0.770545
246 2 0.193004 0.36631 0.734668
247 1 0.389882 0.669687 0.146743
248 2 0.394072 0.653097 0.172058
249 2 0.395253 0.697018 0.140145
250 1 0.86691 0.377499 0.344979
251 2 0.873659 0.399062 0.35681
252 2 0.870619 0.362186 0.318076
253 1 0.239886 0.406843 0.632195
254 2 0.234785 0.428734 0.650709
255 2 0.233739 0.382579 0.622065
256 1 0.495048 0.821457 0.829769
257 2 0.493861 0.798015 0.853134
258 2 0.489831 0.848611 0.838216
259 1 0.311034 0.219742 0.604269
260 2 0.305897 0.239697 0.624755
261 2 0.31775 0.202371 0.621824
262 1 0.0445045 0.0378819 0.654567
263 2 0.0544005 0.0363483 0.65911
264 2 0.0423111 0.0637603 0.63487
265 1 0.80011 0.0987962 0.320604
266 2 0.799739 0.0916988 0.353149
267 2 0.799319 0.0706254 0.302981
268 1 0.619503 0.362457 0.169768
269 2 0.626737 0.35168 0.149436
270 2 0.614341 0.386716 0.154716
271 1 0.823404 0.829121 0.614929
272 2 0.830296 0.809185 0.628563
273 2 0.826246 0.860904 0.618278
274 1 0.886535 0.434603 0.364523
275 2 0.896214 0.429793 0.357658
276 2 0.884039 0.466067 0.357318
277 1 0.881974 0.343682 0.272414
278 2 0.879663 0.311809 0.278405
279 2 0.889192 0.345159 0.249389
280 1 0.338176 0.708487 0.50735
281 2 0.328356 0.709883 0.513479
282 2 0.340009 0.684501 0.485025
283 1 0.290245 0.426329 0.56757
284 2 0.290102 0.455469 0.551392
285 2 0.281886 0.423171 0.585592
286 1 0.996654 0.216933 0.984439
287 2 0.99687 0.198483 0.0121911
288 2 1.00157 0.201082 0.96013
289 1 0.317787 0.611543 0.173952
290 2 0.325792 0.624835 0.159039
291 2 0.310627 0.606184 0.151307
292 1 0.147028 0.411135 0.630845
293 2 0.154255 0.39149 0.618803
294 2 0.13821 0.401601 0.618351
295 1 0.218584 0.339567 0.648986
296 2 0.214307 0.31141 0.659712
297 2 0.223034 0.354952 0.674567
298 1 0.300021 0.48078 0.228859
299 2 0.30161 0.455209 0.249576
300 2 0.3059 0.506322 0.237501
ITEM: TIMESTEP
7000
ITEM: NUMBER OF ATOMS
300
ITEM: BOX BOUNDS pp ff pp
0.0000000000000000e+00 1.0000000000000000e+02
0.0000000000000000e+00 3.0000000000000000e+01
0.0000000000000000e+00 3.0000000000000000e+01
ITEM: ATOMS id type xs ys zs
1 1 0.392117 0.767498 0.066884
2 2 0.394884 0.774667 0.0356646
3 2 0.382593 0.757347 0.0670362
4 1 0.608587 0.397088 0.138954
5 2 0.600925 0.380049 0.12597
6 2 0.605645 0.428162 0.145983
7 1 0.0148308 0.318376 0.075478
8 2 0.022287 0.339706 0.0692814
9 2 0.0104643 0.309639 0.0467912
10 1 0.557888 0.409112 0.2812
11 2 0.549773 0.427858 0.286492
12 2 0.566088 0.426739 0.288497
13 1 0.885383 0.511571 0.291221
14 2 0.892 0.495867 0.27178
15 2 0.876687 0.514497 0.27502
16 1 0.293062 0.489492 0.719798
17 2 0.30218 0.499231 0.710177
18 2 0.290632 0.461228 0.704093
19 1 0.304945 0.22573 0.543749
20 2 0.307802 0.241471 0.571545
21 2 0.301612 0.19527 0.551482
22 1 0.12942 0.384693 0.559864
23 2 0.121848 0.384692 0.538091
24 2 0.136552 0.363844 0.549315
25 1 0.349276 0.715969 0.382068
26 2 0.350651 0.739656 0.40507
27 2 0.356294 0.718714 0.358482
28 1 0.555705 0.464301 0.40403
29 2 0.551727 0.438438 0.420353
30 2 0.563521 0.453902 0.386025
31 1 0.573689 0.407939 0.363596
32 2 0.567004 0.390935 0.34556
33 2 0.582928 0.39962 0.353922
34 1 0.168838 0.45361 0.673587
35 2 0.16739 0.445089 0.641725
36 2 0.16036 0.449141 0.690689
37 1 0.294649 0.415601 0.66347
38 2 0.295336 0.429776 0.633387
39 2 0.300848 0.389491 0.665049
40 1 0.337142 0.371228 0.441025
41 2 0.329031 0.367683 0.421852
42 2 0.34422 0.349916 0.431014
43 1 0.160453 0.364968 0.457044
44 2 0.154888 0.345996 0.436866
45 2 0.165004 0.388666 0.439173
46 1 0.543396 0.486211 0.324444
47 2 0.533607 0.492534 0.321928
48 2 0.546095 0.486826 0.356535
49 1 0.578583 0.474575 0.27808
50 2 0.58698 0.469077 0.295328
51 2 0.575773 0.506333 0.28193
52 1 0.841753 0.759089 0.677548
53 2 0.845923 0.734815 0.65942
54 2 0.834591 0.746208 0.696919
55 1 0.681672 0.698237 0.923954
56 2 0.683014 0.728672 0.936793
57 2 0.678304 0.70091 0.892682
58 1 0.260402 0.576606 0.663388
59 2 0.250447 0.575381 0.666306
60 2 0.263314 0.556681 0.63849
61 1 0.187541 0.289656 0.756262
62 2 0.189383 0.321694 0.749405
63 2 0.183945 0.287027 0.787254
64 1 0.309848 0.375913 0.562104
65 2 0.302811 0.399088 0.557229
66 2 0.318857 0.389046 0.556022
67 1 0.333041 0.589222 0.34232
68 2 0.329185 0.604481 0.369024
69 2 0.329622 0.603841 0.314615
70 1 0.861076 0.473323 0.258664
71 2 0.860644 0.457533 0.287985
72 2 0.858758 0.452046 0.234196
73 1 0.00525103 0.154803 0.0610756
74 2 0.00113644 0.129428 0.0777828
75 2 0.00880139 0.17724 0.0827006
76 1 0.841467 0.717165 0.473825
77 2 0.839224 0.745704 0.45831
78 2 0.833949 0.708637 0.494083
79 1 0.218353 0.284097 0.720733
80 2 0.223499 0.25552 0.72122
81 2 0.208613 0.277636 0.724628
82 1 0.60566 0.387456 0.251561
83 2 0.612603 0.369514 0.23564
84 2 0.603188 0.413912 0.233032
85 1 0.266833 0.389062 0.62571
86 2 0.271613 0.382393 0.654218
87 2 0.25698 0.390104 0.63132
88 1 0.492694 0.74044 0.918262
89 2 0.498478 0.721027 0.937302
90 2 0.485141 0.722412 0.905925
91 1 0.322098 0.637411 0.283176
92 2 0.319702 0.633112 0.2511
93 2 0.317942 0.665577 0.294395
94 1 0.473554 0.650922 0.809953
95 2 0.483356 0.650776 0.803353
96 2 0.468439 0.645775 0.781776
97 1 0.598344 0.381596 0.342355
98 2 0.600756 0.381375 0.310006
99 2 0.60669 0.38148 0.360718
100 1 0.169027 0.331762 0.622057
101 2 0.167069 0.313566 0.649212
102 2 0.177132 0.35052 0.627482
103 1 0.283803 0.615139 0.579014
104 2 0.28238 0.61629 0.611989
105 2 0.293491 0.609932 0.572609
106 1 0.28841 0.3237 0.59985
107 2 0.280199 0.329089 0.581602
108 2 0.296505 0.326389 0.580466
109 1 0.221552 0.44417 0.705125
110 2 0.218893 0.452856 0.736062
111 2 0.215033 0.456975 0.683334
112 1 0.313885 0.587146 0.0601144
113 2 0.310233 0.616462 0.0702847
114 2 0.312089 0.563976 0.0833185
115 1 0.499304 0.652852 0.786398
116 2 0.50578 0.63066 0.774043
117 2 0.504266 0.679903 0.796685
118 1 0.300302 0.663738 0.0682684
119 2 0.296363 0.692368 0.0791804
120 2 0.298873 0.661154 0.0353786
121 1 0.996597 0.287473 0.0144595
122 2 1.0005 0.258875 0.00331396
123 2 0.992577 0.304263 0.988972
124 1 0.136667 0.320047 0.405455
125 2 0.134542 0.298496 0.381031
126 2 0.130962 0.313385 0.43201
127 1 0.858025 0.717263 0.54952
128 2 0.860435 0.7485 0.541107
129 2 0.85357 0.702276 0.523713
130 1 0.586712 0.451576 0.190489
131 2 0.580407 0.425718 0.191405
132 2 0.584899 0.471725 0.216347
133 1 0.210763 0.475027 0.778569
134 2 0.218491 0.496175 0.779051
135 2 0.208481 0.466067 0.809762
136 1 0.274101 0.55537 0.746689
137 2 0.281601 0.53392 0.741588
138 2 0.269851 0.563064 0.717513
139 1 0.409902 0.746763 0.138705
140 2 0.403947 0.753501 0.112789
141 2 0.416265 0.772058 0.143324
142 1 0.31067 0.592298 0.97379
143 2 0.317396 0.61092 0.957617
144 2 0.313664 0.587725 0.00526328
145 1 0.285623 0.306314 0.695733
146 2 0.279724 0.279408 0.696451
147 2 0.286684 0.316654 0.664242
148 1 0.314392 0.313859 0.397329
149 2 0.315885 0.280923 0.39608
150 2 0.307352 0.320698 0.41999
151 1 0.833371 0.41997 0.338995
152 2 0.83241 0.422454 0.372081
153 2 0.843076 0.41945 0.330973
154 1 0.351532 0.778398 0.451881
155 2 0.353859 0.805728 0.469316
156 2 0.347577 0.755573 0.472286
157 1 0.832584 0.616077 0.623021
158 2 0.824478 0.6167 0.64253
159 2 0.836145 0.584967 0.621472
160 1 0.80199 0.0294406 0.247374
161 2 0.797591 0.0150165 0.221142
162 2 0.801527 0.06258 0.244131
163 1 0.584206 0.350262 0.134626
164 2 0.583803 0.360119 0.16644
165 2 0.577425 0.367088 0.116818
166 1 0.308103 0.305643 0.492983
167 2 0.307475 0.275145 0.506272
168 2 0.312643 0.326122 0.514494
169 1 0.996596 0.257354 0.109562
170 2 0.99232 0.2472 0.0811918
171 2 0.00148564 0.285931 0.1042
172 1 0.13042 0.303563 0.490685
173 2 0.127946 0.273967 0.503616
174 2 0.139532 0.312258 0.50131
175 1 0.576721 0.372721 0.214489
176 2 0.56837 0.375031 0.232679
177 2 0.584351 0.363941 0.234167
178 1 0.343603 0.642435 0.430391
179 2 0.349773 0.619345 0.417946
180 2 0.343589 0.669166 0.410477
181 1 0.308452 0.345973 0.721223
182 2 0.299155 0.334254 0.717555
183 2 0.308187 0.374545 0.738369
184 1 0.767873 0.382156 0.395851
185 2 0.762671 0.356768 0.382972
186 2 0.769481 0.376629 0.428283
187 1 0.848793 0.408082 0.198676
188 2 0.839887 0.397762 0.209785
189 2 0.847966 0.417639 0.166861
190 1 0.332702 0.404124 0.524775
191 2 0.337352 0.433572 0.526684
192 2 0.332951 0.393151 0.49331
193 1 0.826362 0.392662 0.243881
194 2 0.825922 0.403874 0.275237
195 2 0.817328 0.381852 0.234525
196 1 0.258428 0.505982 0.799408
197 2 0.2627 0.520729 0.773126
198 2 0.262469 0.517885 0.827479
199 1 0.261176 0.479748 0.61585
200 2 0.25146 0.479764 0.607968
201 2 0.263701 0.44995 0.628191
202 1 0.196497 0.475447 0.678609
203 2 0.186813 0.483624 0.677106
204 2 0.200639 0.489591 0.70545
205 1 0.565227 0.551329 0.280294
206 2 0.561728 0.58224 0.284725
207 2 0.558868 0.529418 0.293772
208 1 0.806679 0.117155 0.241873
209 2 0.804166 0.115925 0.274114
210 2 0.816451 0.123659 0.239096
211 1 0.517016 0.729505 0.809273
212 2 0.510214 0.74864 0.82447
213 2 0.525381 0.747095 0.804356
214 1 0.293862 0.547715 0.137467
215 2 0.296298 0.520092 0.154264
216 2 0.285541 0.542231 0.119812
217 1 0.23155 0.529357 0.787525
218 2 0.233254 0.558751 0.802182
219 2 0.239997 0.511521 0.787115
220 1 0.851557 0.685186 0.629992
221 2 0.843123 0.668532 0.623395
222 2 0.85556 0.696182 0.601495
223 1 0.191094 0.37971 0.639971
224 2 0.200208 0.368973 0.648502
225 2 0.191485 0.412253 0.632872
226 1 0.290357 0.656612 0.97188
227 2 0.283079 0.654132 0.949154
228 2 0.295115 0.627406 0.974433
229 1 0.823774 0.775299 0.531606
230 2 0.814771 0.789274 0.527716
231 2 0.828558 0.790075 0.556876
232 1 0.473299 0.676161 0.897027
233 2 0.471213 0.672836 0.864598
234 2 0.471627 0.647227 0.91261
235 1 0.323108 0.531403 0.268596
236 2 0.326783 0.537718 0.298948
237 2 0.324493 0.557972 0.249003
238 1 0.152955 0.334605 0.539441
239 2 0.15668 0.344626 0.510175
240 2 0.159879 0.338406 0.563189
241 1 0.00925744 0.0776988 0.12235
242 2 0.0188258 0.0872081 0.124202
243 2 0.0087275 0.0473337 0.108714
244 1 0.188316 0.396329 0.733659
245 2 0.196624 0.412728 0.742336
246 2 0.185893 0.404006 0.702243
247 1 0.395824 0.662153 0.149643
248 2 0.400761 0.635668 0.161419
249 2 0.402203 0.687474 0.145422
250 1 0.860358 0.419486 0.332396
251 2 0.866452 0.44249 0.345405
252 2 0.865775 0.3965 0.316375
253 1 0.242085 0.411014 0.639959
254 2 0.238334 0.424401 0.667808
255 2 0.235278 0.39087 0.626158
256 1 0.500525 0.791322 0.849798
257 2 0.497283 0.771158 0.874041
258 2 0.496496 0.821579 0.853701
259 1 0.307259 0.238767 0.637607
260 2 0.299534 0.259757 0.634875
261 2 0.310017 0.236559 0.669572
262 1 0.0477753 0.0402639 0.612425
263 2 0.049351 0.0499993 0.580981
264 2 0.0427617 0.0114225 0.612482
265 1 0.802134 0.0851995 0.329984
266 2 0.799402 0.0808659 0.361754
267 2 0.803759 0.0555105 0.31583
268 1 0.623544 0.354053 0.193942
269 2 0.628439 0.33383 0.173065
270 2 0.617597 0.374389 0.176489
271 1 0.836554 0.814539 0.60304
272 2 0.838202 0.791544 0.626538
273 2 0.841218 0.842834 0.611333
274 1 0.886205 0.457111 0.370392
275 2 0.893752 0.454325 0.392085
276 2 0.888181 0.48167 0.348837
277 1 0.86944 0.344884 0.290346
278 2 0.868388 0.345521 0.257203
279 2 0.862049 0.326892 0.303781
280 1 0.338752 0.702072 0.498806
281 2 0.330947 0.695783 0.518673
282 2 0.340759 0.675105 0.48039
283 1 0.288711 0.436115 0.576111
284 2 0.285174 0.462576 0.559621
285 2 0.281073 0.41752 0.586934
286 1 0.00583118 0.207945 0.990205
287 2 0.00454245 0.189469 0.0176139
288 2 0.00911476 0.188597 0.965366
289 1 0.313863 0.613155 0.195788
290 2 0.320177 0.615917 0.170086
291 2 0.304457 0.612741 0.184479
292 1 0.153128 0.412483 0.604554
293 2 0.155474 0.384063 0.620117
294 2 0.144352 0.408933 0.588974
295 1 0.217214 0.362949 0.660797
296 2 0.217221 0.333348 0.676124
297 2 0.219475 0.386847 0.682778
298 1 0.30594 0.48183 0.199189
299 2 0.313334 0.465984 0.183295
300 2 0.309609 0.497222 0.226108
ITEM: TIMESTEP
7100
ITEM: NUMBER OF ATOMS
300
ITEM: BOX BOUNDS pp ff pp
0.0000000000000000e+00 1.0000000000000000e+02
0.0000000000000000e+00 3.0000000000000000e+01
0.0000000000000000e+00 3.0000000000000000e+01
ITEM: ATOMS id type xs ys zs
1 1 0.39052 0.772693 0.090097
2 2 0.390247 0.783433 0.0585542
3 2 0.38424 0.747005 0.0936951
4 1 0.611909 0.375421 0.135509
5 2 0.602206 0.368713 0.131039
6 2 0.613048 0.407851 0.14222
7 1 0.0152626 0.278482 0.0689479
8 2 0.0242703 0.292655 0.0659927
9 2 0.00997104 0.283933 0.0411938
10 1 0.555299 0.413817 0.272203
11 2 0.54793 0.436277 0.270414
12 2 0.563778 0.42733 0.260813
13 1 0.886147 0.515474 0.278565
14 2 0.89253 0.520901 0.253486
15 2 0.876778 0.515826 0.266915
16 1 0.302881 0.493919 0.697805
17 2 0.311931 0.488831 0.71104
18 2 0.297234 0.466778 0.702292
19 1 0.301742 0.229943 0.570453
20 2 0.301255 0.24626 0.599474
21 2 0.30599 0.200149 0.575235
22 1 0.13605 0.39114 0.577128
23 2 0.127474 0.38937 0.560074
24 2 0.142003 0.365888 0.568204
25 1 0.354751 0.730829 0.378306
26 2 0.354254 0.746307 0.407781
27 2 0.361595 0.745799 0.359162
28 1 0.56508 0.483373 0.406128
29 2 0.56444 0.466439 0.434761
30 2 0.567879 0.462727 0.381678
31 1 0.572596 0.424606 0.341896
32 2 0.565144 0.410938 0.324366
33 2 0.57993 0.402282 0.345787
34 1 0.172202 0.459026 0.705361
35 2 0.16672 0.445018 0.681255
36 2 0.166328 0.466295 0.731341
37 1 0.290968 0.404626 0.689498
38 2 0.296204 0.394486 0.662972
39 2 0.293264 0.385593 0.715771
40 1 0.336653 0.387935 0.393952
41 2 0.332671 0.358078 0.400543
42 2 0.345708 0.383926 0.380382
43 1 0.160256 0.34792 0.462895
44 2 0.152787 0.341345 0.441725
45 2 0.168043 0.360276 0.446026
46 1 0.542792 0.494203 0.344343
47 2 0.533508 0.482155 0.34722
48 2 0.5471 0.495238 0.374407
49 1 0.576161 0.470815 0.259411
50 2 0.577857 0.459522 0.29026
51 2 0.569869 0.496691 0.260723
52 1 0.841252 0.767622 0.68476
53 2 0.841326 0.736497 0.672831
54 2 0.832798 0.772765 0.701807
55 1 0.68417 0.68478 0.94058
56 2 0.674516 0.692456 0.944662
57 2 0.686577 0.687327 0.908327
58 1 0.263509 0.579531 0.654188
59 2 0.265373 0.606154 0.635116
60 2 0.257543 0.558458 0.637709
61 1 0.180136 0.298056 0.735099
62 2 0.180629 0.330608 0.728114
63 2 0.173181 0.292868 0.758483
64 1 0.304828 0.371629 0.530921
65 2 0.298722 0.397179 0.53755
66 2 0.314302 0.380941 0.536133
67 1 0.319071 0.585896 0.359535
68 2 0.321935 0.604949 0.385165
69 2 0.32243 0.599137 0.331069
70 1 0.861089 0.482164 0.247129
71 2 0.859369 0.471552 0.278204
72 2 0.859992 0.456759 0.225861
73 1 0.00584122 0.156158 0.0662564
74 2 0.00757475 0.12761 0.0824657
75 2 0.0111525 0.180675 0.080277
76 1 0.848672 0.722659 0.491121
77 2 0.85053 0.713207 0.459761
78 2 0.843809 0.751784 0.490952
79 1 0.212018 0.316047 0.750156
80 2 0.215213 0.288764 0.766071
81 2 0.202113 0.318848 0.753785
82 1 0.60425 0.394248 0.26228
83 2 0.614056 0.388755 0.258725
84 2 0.601302 0.417369 0.240372
85 1 0.270561 0.413192 0.629816
86 2 0.276735 0.411252 0.655966
87 2 0.261095 0.410971 0.640323
88 1 0.484729 0.726229 0.928773
89 2 0.48252 0.72533 0.961271
90 2 0.477149 0.713296 0.911296
91 1 0.328779 0.61787 0.268222
92 2 0.324449 0.624839 0.238994
93 2 0.338582 0.624153 0.266256
94 1 0.472171 0.680137 0.80549
95 2 0.479906 0.660199 0.798493
96 2 0.472052 0.705703 0.784104
97 1 0.591065 0.36319 0.332843
98 2 0.596257 0.376834 0.307835
99 2 0.597022 0.342922 0.350336
100 1 0.171937 0.326665 0.600056
101 2 0.173066 0.30556 0.625582
102 2 0.180803 0.339887 0.592123
103 1 0.277546 0.605016 0.578982
104 2 0.282764 0.62499 0.599223
105 2 0.283687 0.591567 0.556371
106 1 0.287011 0.343507 0.606269
107 2 0.280661 0.36924 0.607156
108 2 0.291716 0.343028 0.576858
109 1 0.218644 0.444887 0.692491
110 2 0.218851 0.449042 0.725557
111 2 0.215065 0.472472 0.678073
112 1 0.309765 0.575388 0.0579027
113 2 0.302375 0.596934 0.064235
114 2 0.311788 0.557823 0.0854181
115 1 0.498121 0.640615 0.782439
116 2 0.504271 0.619193 0.767209
117 2 0.503061 0.668765 0.78933
118 1 0.292689 0.64866 0.060812
119 2 0.285786 0.670237 0.0715819
120 2 0.293818 0.65196 0.0278565
121 1 0.997903 0.274206 0.997771
122 2 0.00168145 0.243692 0.993143
123 2 0.991468 0.28121 0.973237
124 1 0.13618 0.330753 0.42231
125 2 0.130164 0.331041 0.395685
126 2 0.132134 0.311784 0.446173
127 1 0.857653 0.709294 0.578532
128 2 0.851915 0.736573 0.577453
129 2 0.859461 0.698717 0.547501
130 1 0.594822 0.443645 0.189757
131 2 0.588444 0.424217 0.172974
132 2 0.58971 0.463617 0.210294
133 1 0.218942 0.443638 0.785468
134 2 0.222723 0.473287 0.794023
135 2 0.226259 0.420923 0.784965
136 1 0.278784 0.553055 0.733599
137 2 0.288241 0.542213 0.733767
138 2 0.275745 0.557278 0.702125
139 1 0.406418 0.742833 0.153257
140 2 0.400356 0.759898 0.132969
141 2 0.415743 0.754521 0.150382
142 1 0.317693 0.61181 0.968775
143 2 0.327115 0.605663 0.959446
144 2 0.315875 0.596842 0.997935
145 1 0.283183 0.291338 0.682484
146 2 0.274583 0.299495 0.697411
147 2 0.284734 0.311604 0.656529
148 1 0.32644 0.313548 0.44609
149 2 0.330217 0.327148 0.473796
150 2 0.317859 0.29804 0.453332
151 1 0.829489 0.432584 0.323554
152 2 0.82712 0.433157 0.355933
153 2 0.839438 0.432842 0.320197
154 1 0.35284 0.78513 0.461998
155 2 0.348672 0.808992 0.480673
156 2 0.35029 0.755234 0.474044
157 1 0.829961 0.612719 0.612497
158 2 0.836019 0.587799 0.603425
159 2 0.833673 0.641631 0.601447
160 1 0.804785 0.0167891 0.24632
161 2 0.804351 0.00735054 0.214384
162 2 0.804147 0.0500015 0.248197
163 1 0.58422 0.373114 0.1402
164 2 0.581377 0.35872 0.168733
165 2 0.576162 0.379495 0.121519
166 1 0.305958 0.287057 0.497565
167 2 0.304446 0.26403 0.521133
168 2 0.304961 0.317453 0.510839
169 1 0.992266 0.263024 0.108489
170 2 0.987374 0.250417 0.0822922
171 2 0.00148193 0.272007 0.09918
172 1 0.125926 0.290563 0.497545
173 2 0.12452 0.264281 0.517504
174 2 0.131685 0.312988 0.513028
175 1 0.577586 0.342933 0.226082
176 2 0.568625 0.355578 0.233768
177 2 0.583734 0.346194 0.25217
178 1 0.348401 0.649132 0.408406
179 2 0.355834 0.628516 0.399907
180 2 0.349569 0.678259 0.392672
181 1 0.296936 0.345118 0.764807
182 2 0.294089 0.318506 0.747122
183 2 0.299261 0.335662 0.795818
184 1 0.763837 0.370341 0.404751
185 2 0.763005 0.403481 0.407022
186 2 0.755774 0.355989 0.418267
187 1 0.854083 0.403832 0.194531
188 2 0.844813 0.395897 0.20419
189 2 0.854959 0.399124 0.161661
190 1 0.329272 0.404611 0.483712
191 2 0.330157 0.437737 0.481466
192 2 0.327219 0.392001 0.453624
193 1 0.830014 0.381535 0.253406
194 2 0.828555 0.405455 0.276105
195 2 0.82133 0.374229 0.238583
196 1 0.261375 0.516095 0.786078
197 2 0.267492 0.521143 0.760196
198 2 0.262565 0.540625 0.808296
199 1 0.252143 0.493922 0.619161
200 2 0.247882 0.465751 0.629916
201 2 0.26203 0.492245 0.623861
202 1 0.19661 0.503617 0.664665
203 2 0.190462 0.489171 0.68663
204 2 0.191348 0.523649 0.644612
205 1 0.556977 0.527909 0.267047
206 2 0.555657 0.559499 0.257361
207 2 0.550935 0.521267 0.292765
208 1 0.805573 0.107501 0.250185
209 2 0.80658 0.0988826 0.28221
210 2 0.809334 0.138034 0.245525
211 1 0.514165 0.715856 0.793689
212 2 0.510457 0.728426 0.821979
213 2 0.519155 0.739641 0.777297
214 1 0.298515 0.538591 0.155361
215 2 0.304962 0.517953 0.17031
216 2 0.290703 0.521175 0.143978
217 1 0.233146 0.52874 0.780718
218 2 0.233408 0.558772 0.766281
219 2 0.242418 0.519603 0.789228
220 1 0.844626 0.684326 0.653554
221 2 0.842229 0.65202 0.651662
222 2 0.850389 0.692559 0.627587
223 1 0.195573 0.373977 0.587791
224 2 0.201184 0.359736 0.611422
225 2 0.196004 0.407129 0.590961
226 1 0.292347 0.650811 0.967619
227 2 0.284634 0.643897 0.947559
228 2 0.300493 0.634792 0.956799
229 1 0.833089 0.790565 0.507964
230 2 0.823425 0.795748 0.501141
231 2 0.835644 0.807844 0.535167
232 1 0.464977 0.686546 0.887379
233 2 0.467507 0.687964 0.855161
234 2 0.459352 0.659521 0.892776
235 1 0.317991 0.525564 0.273976
236 2 0.314437 0.519037 0.304443
237 2 0.321677 0.55654 0.273233
238 1 0.150571 0.320452 0.543418
239 2 0.154269 0.334932 0.516041
240 2 0.158089 0.311496 0.563491
241 1 0.00826402 0.0856298 0.122491
242 2 0.0103022 0.0534501 0.127915
243 2 0.000447475 0.094784 0.141157
244 1 0.188335 0.399939 0.74985
245 2 0.195294 0.423074 0.755996
246 2 0.181067 0.413183 0.731173
247 1 0.397675 0.6577 0.132772
248 2 0.404888 0.6356 0.139459
249 2 0.401126 0.688548 0.137986
250 1 0.858906 0.440407 0.327297
251 2 0.866458 0.452007 0.345815
252 2 0.860508 0.408287 0.32016
253 1 0.242761 0.387609 0.653706
254 2 0.236035 0.398973 0.675598
255 2 0.239266 0.359939 0.639223
256 1 0.506395 0.73815 0.876058
257 2 0.497761 0.732081 0.891736
258 2 0.513227 0.748315 0.898177
259 1 0.307163 0.255715 0.659795
260 2 0.298295 0.264523 0.672431
261 2 0.310676 0.229248 0.676332
262 1 0.0501612 0.0410963 0.567982
263 2 0.041943 0.0230085 0.573771
264 2 0.0582062 0.0243249 0.578503
265 1 0.806263 0.0647726 0.335353
266 2 0.809736 0.0572221 0.365685
267 2 0.802874 0.037114 0.32057
268 1 0.626732 0.360016 0.221716
269 2 0.636479 0.367427 0.221003
270 2 0.623054 0.360809 0.190729
271 1 0.846694 0.808453 0.604054
272 2 0.84437 0.795462 0.633758
273 2 0.855102 0.826301 0.606701
274 1 0.883266 0.478627 0.360063
275 2 0.889422 0.489146 0.384135
276 2 0.886908 0.487687 0.330371
277 1 0.851376 0.358868 0.296254
278 2 0.841776 0.362261 0.287563
279 2 0.85639 0.344022 0.271529
280 1 0.343803 0.705163 0.496761
281 2 0.350114 0.687593 0.515733
282 2 0.340339 0.685858 0.472162
283 1 0.286081 0.430704 0.554526
284 2 0.287136 0.462316 0.544557
285 2 0.282824 0.430133 0.586037
286 1 0.0118209 0.199247 0.987985
287 2 0.00770254 0.182999 0.0136491
288 2 0.0181786 0.17902 0.972084
289 1 0.314322 0.623072 0.170168
290 2 0.31557 0.634274 0.13905
291 2 0.307643 0.598263 0.170161
292 1 0.158491 0.415518 0.640845
293 2 0.163171 0.39556 0.619178
294 2 0.149824 0.425735 0.627727
295 1 0.213139 0.355546 0.667187
296 2 0.212074 0.339323 0.696089
297 2 0.214567 0.38799 0.673169
298 1 0.314859 0.48809 0.19314
299 2 0.323228 0.485201 0.175124
300 2 0.317093 0.500218 0.223283
ITEM: TIMESTEP
7200
ITEM: NUMBER OF ATOMS
300
ITEM: BOX BOUNDS pp ff pp
0.0000000000000000e+00 1.0000000000000000e+02
0.0000000000000000e+00 3.0000000000000000e+01
0.0000000000000000e+00 3.0000000000000000e+01
ITEM: ATOMS id type xs ys zs
1 1 0.387932 0.775157 0.114845
2 2 0.379529 0.789033 0.103269
3 2 0.387296 0.741995 0.112213
4 1 0.614583 0.375693 0.153168
5 2 0.605044 0.368934 0.145794
6 2 0.616074 0.408625 0.151776
7 1 0.0124609 0.27059 0.0688961
8 2 0.0178736 0.245504 0.0813972
9 2 0.011427 0.26648 0.0359971
10 1 0.558717 0.425157 0.257584
11 2 0.552453 0.451137 0.257905
12 2 0.568025 0.435764 0.263592
13 1 0.889146 0.508181 0.255409
14 2 0.882935 0.53123 0.243111
15 2 0.886134 0.477914 0.245703
16 1 0.289825 0.488533 0.668649
17 2 0.295415 0.500076 0.643536
18 2 0.292215 0.456734 0.67469
19 1 0.303522 0.240705 0.588823
20 2 0.304392 0.238952 0.621983
21 2 0.303508 0.209924 0.576031
22 1 0.139101 0.404907 0.598247
23 2 0.13003 0.413826 0.587414
24 2 0.143526 0.385634 0.575398
25 1 0.358928 0.715192 0.364895
26 2 0.355721 0.736007 0.388635
27 2 0.36096 0.732464 0.337202
28 1 0.570956 0.494684 0.384638
29 2 0.57712 0.494487 0.410885
30 2 0.57245 0.467214 0.366424
31 1 0.573617 0.420985 0.335434
32 2 0.565467 0.416529 0.31664
33 2 0.580136 0.396403 0.329554
34 1 0.174519 0.455787 0.695738
35 2 0.167954 0.430849 0.692528
36 2 0.169688 0.48365 0.704422
37 1 0.291458 0.398572 0.717245
38 2 0.295514 0.383652 0.690681
39 2 0.284542 0.378588 0.730677
40 1 0.330371 0.374145 0.408555
41 2 0.330238 0.357185 0.437248
42 2 0.338146 0.36414 0.390135
43 1 0.158739 0.318471 0.455081
44 2 0.150281 0.331464 0.442939
45 2 0.161688 0.293191 0.435706
46 1 0.544051 0.501175 0.348971
47 2 0.538353 0.502953 0.376307
48 2 0.553493 0.508878 0.356789
49 1 0.576039 0.493949 0.241408
50 2 0.578521 0.507975 0.270492
51 2 0.56618 0.496825 0.236638
52 1 0.840023 0.771862 0.671854
53 2 0.838244 0.73939 0.667216
54 2 0.833483 0.7841 0.693903
55 1 0.685714 0.672245 0.956289
56 2 0.681078 0.644752 0.945499
57 2 0.693844 0.677782 0.937689
58 1 0.271843 0.569988 0.63475
59 2 0.273931 0.577843 0.603112
60 2 0.266616 0.541582 0.635569
61 1 0.178679 0.342996 0.704355
62 2 0.183694 0.358455 0.728701
63 2 0.170181 0.359431 0.698154
64 1 0.298874 0.376704 0.506175
65 2 0.293206 0.397145 0.524514
66 2 0.305208 0.39469 0.487688
67 1 0.31639 0.595657 0.359126
68 2 0.309586 0.619282 0.365349
69 2 0.320948 0.60219 0.330186
70 1 0.86183 0.482852 0.247705
71 2 0.856787 0.476648 0.275812
72 2 0.858789 0.461901 0.223842
73 1 0.0073076 0.174697 0.0667557
74 2 0.00863828 0.152935 0.0916122
75 2 0.000700255 0.197906 0.0761056
76 1 0.855363 0.700904 0.508817
77 2 0.858579 0.69559 0.477705
78 2 0.850481 0.729965 0.510151
79 1 0.211369 0.302344 0.735906
80 2 0.212657 0.276203 0.756139
81 2 0.20176 0.304271 0.726884
82 1 0.60335 0.382026 0.261207
83 2 0.612596 0.369409 0.262662
84 2 0.602602 0.402248 0.234825
85 1 0.270983 0.421932 0.635367
86 2 0.274742 0.432815 0.664275
87 2 0.26101 0.424255 0.63609
88 1 0.485185 0.718694 0.917054
89 2 0.483394 0.748665 0.930366
90 2 0.477045 0.708144 0.900818
91 1 0.326739 0.612966 0.26547
92 2 0.319703 0.623012 0.244022
93 2 0.335781 0.619866 0.253012
94 1 0.471804 0.697562 0.78938
95 2 0.478003 0.673364 0.779451
96 2 0.476272 0.727141 0.785591
97 1 0.588505 0.339414 0.319893
98 2 0.592647 0.360121 0.297719
99 2 0.595355 0.330497 0.342484
100 1 0.175418 0.333105 0.615479
101 2 0.177675 0.336465 0.647778
102 2 0.183675 0.325198 0.598422
103 1 0.2814 0.604759 0.549909
104 2 0.282968 0.637292 0.554951
105 2 0.283724 0.597011 0.518427
106 1 0.286683 0.345441 0.626846
107 2 0.278886 0.366301 0.627507
108 2 0.288361 0.335648 0.595478
109 1 0.220044 0.440899 0.699088
110 2 0.218994 0.435204 0.731744
111 2 0.215601 0.469697 0.691182
112 1 0.307644 0.590202 0.0567827
113 2 0.300629 0.610637 0.0688964
114 2 0.311956 0.573643 0.081889
115 1 0.491533 0.642723 0.772828
116 2 0.495873 0.614812 0.761749
117 2 0.498295 0.661303 0.788885
118 1 0.288641 0.664248 0.0545489
119 2 0.288785 0.696535 0.0628233
120 2 0.292993 0.660182 0.0248149
121 1 0.00749954 0.258883 0.977286
122 2 0.00787816 0.225579 0.977914
123 2 0.00584917 0.269206 0.946073
124 1 0.131635 0.329776 0.434064
125 2 0.123061 0.332701 0.41716
126 2 0.129642 0.324786 0.466345
127 1 0.857117 0.684675 0.59585
128 2 0.860042 0.712348 0.61167
129 2 0.85732 0.689872 0.562931
130 1 0.596915 0.4493 0.196426
131 2 0.591183 0.435581 0.172807
132 2 0.591374 0.46977 0.215158
133 1 0.220545 0.431387 0.791821
134 2 0.226526 0.456628 0.783076
135 2 0.226073 0.40432 0.798062
136 1 0.283195 0.562618 0.726086
137 2 0.286286 0.534792 0.710898
138 2 0.280081 0.584556 0.703237
139 1 0.412105 0.74028 0.145648
140 2 0.404417 0.761061 0.140889
141 2 0.42067 0.757465 0.144783
142 1 0.318492 0.602236 0.971177
143 2 0.327213 0.587073 0.965156
144 2 0.315792 0.596841 0.00281536
145 1 0.283283 0.269907 0.680966
146 2 0.274329 0.259096 0.670793
147 2 0.285382 0.298884 0.666049
148 1 0.333836 0.323218 0.483363
149 2 0.339635 0.322736 0.510517
150 2 0.324512 0.31451 0.491691
151 1 0.828283 0.469837 0.300992
152 2 0.825875 0.501696 0.306624
153 2 0.836861 0.462665 0.31655
154 1 0.349502 0.768476 0.441459
155 2 0.344341 0.792919 0.456213
156 2 0.35087 0.743497 0.463055
157 1 0.831026 0.610411 0.599616
158 2 0.836812 0.602463 0.573615
159 2 0.825165 0.584515 0.607284
160 1 0.806225 0.0279383 0.243689
161 2 0.812566 0.0215167 0.218727
162 2 0.803554 0.0600463 0.242727
163 1 0.584209 0.366986 0.158149
164 2 0.582468 0.349195 0.185735
165 2 0.576824 0.361889 0.136258
166 1 0.309641 0.292107 0.508695
167 2 0.309713 0.280101 0.53979
168 2 0.302388 0.314866 0.505759
169 1 0.989885 0.235321 0.114394
170 2 0.982719 0.256967 0.122881
171 2 0.998848 0.249361 0.119027
172 1 0.128179 0.306239 0.523415
173 2 0.123231 0.278242 0.530844
174 2 0.137082 0.306011 0.538595
175 1 0.573434 0.331651 0.245821
176 2 0.564071 0.343248 0.247399
177 2 0.577123 0.328612 0.276654
178 1 0.349437 0.645184 0.413321
179 2 0.340644 0.632685 0.403537
180 2 0.354322 0.657321 0.386888
181 1 0.275477 0.329902 0.772595
182 2 0.277036 0.298091 0.764102
183 2 0.268311 0.331449 0.795795
184 1 0.7535 0.354127 0.418047
185 2 0.753906 0.357385 0.451194
186 2 0.753597 0.384305 0.403895
187 1 0.847027 0.414338 0.211525
188 2 0.83939 0.412486 0.232961
189 2 0.845949 0.391031 0.187967
190 1 0.320398 0.452208 0.455878
191 2 0.321036 0.476823 0.433501
192 2 0.322882 0.423325 0.441444
193 1 0.826705 0.386209 0.260761
194 2 0.826235 0.416946 0.273565
195 2 0.822821 0.364464 0.282455
196 1 0.259664 0.540204 0.766981
197 2 0.263728 0.512861 0.780396
198 2 0.266921 0.560415 0.756141
199 1 0.24797 0.516657 0.634269
200 2 0.238413 0.524932 0.629001
201 2 0.250472 0.52402 0.665691
202 1 0.195776 0.485384 0.657187
203 2 0.187778 0.468042 0.667165
204 2 0.198593 0.474915 0.626966
205 1 0.54669 0.504328 0.256337
206 2 0.542248 0.528324 0.238556
207 2 0.543455 0.505595 0.287853
208 1 0.804909 0.114815 0.25852
209 2 0.805652 0.0997168 0.288134
210 2 0.801432 0.145778 0.262769
211 1 0.508614 0.697213 0.817657
212 2 0.509001 0.688137 0.849705
213 2 0.512394 0.727889 0.814282
214 1 0.310051 0.545262 0.143148
215 2 0.315683 0.520183 0.15454
216 2 0.300656 0.534661 0.138904
217 1 0.234414 0.507487 0.769268
218 2 0.229045 0.526755 0.789752
219 2 0.243358 0.521467 0.764086
220 1 0.837138 0.6818 0.661017
221 2 0.828739 0.67157 0.646097
222 2 0.844986 0.674714 0.64161
223 1 0.20029 0.330721 0.587737
224 2 0.206623 0.337387 0.612657
225 2 0.205145 0.314557 0.563489
226 1 0.297909 0.660354 0.971247
227 2 0.291456 0.65172 0.947292
228 2 0.305969 0.640686 0.969672
229 1 0.848592 0.805191 0.519421
230 2 0.842884 0.818615 0.495571
231 2 0.847912 0.823598 0.547118
232 1 0.462117 0.695567 0.880866
233 2 0.463525 0.694868 0.847872
234 2 0.455152 0.67317 0.889262
235 1 0.312551 0.520771 0.278737
236 2 0.310413 0.518893 0.311246
237 2 0.318001 0.548103 0.272906
238 1 0.154636 0.342233 0.547472
239 2 0.156608 0.330019 0.517162
240 2 0.163036 0.342758 0.565551
241 1 0.00539429 0.103907 0.123016
242 2 0.000671739 0.0950249 0.151023
243 2 0.0116505 0.0795896 0.113802
244 1 0.187969 0.41823 0.763052
245 2 0.19535 0.43641 0.776293
246 2 0.182385 0.437496 0.743216
247 1 0.39202 0.68827 0.117066
248 2 0.392139 0.658966 0.132947
249 2 0.401317 0.700433 0.115413
250 1 0.853335 0.449739 0.331729
251 2 0.860198 0.465277 0.350342
252 2 0.856873 0.420089 0.322089
253 1 0.243054 0.414331 0.648208
254 2 0.23708 0.429198 0.670424
255 2 0.242113 0.381252 0.650861
256 1 0.509158 0.685879 0.900914
257 2 0.50083 0.699871 0.912948
258 2 0.514482 0.673018 0.926029
259 1 0.308664 0.231307 0.679848
260 2 0.300641 0.248603 0.689685
261 2 0.314691 0.226121 0.705937
262 1 0.0532578 0.0400302 0.526894
263 2 0.048133 0.0537694 0.552004
264 2 0.0518993 0.00700674 0.527133
265 1 0.80979 0.0637989 0.333672
266 2 0.816823 0.0554598 0.35585
267 2 0.807857 0.0376957 0.313968
268 1 0.628675 0.358131 0.242223
269 2 0.63486 0.382574 0.251633
270 2 0.626748 0.360942 0.209635
271 1 0.846038 0.845333 0.600986
272 2 0.841599 0.82018 0.617094
273 2 0.853614 0.856975 0.619369
274 1 0.878148 0.486633 0.342203
275 2 0.884837 0.466242 0.356282
276 2 0.880751 0.492422 0.310543
277 1 0.864619 0.365307 0.300902
278 2 0.872881 0.353397 0.286384
279 2 0.85774 0.34118 0.30271
280 1 0.351462 0.692348 0.495997
281 2 0.346978 0.674445 0.519812
282 2 0.353098 0.673056 0.469366
283 1 0.287645 0.442134 0.551984
284 2 0.284524 0.462348 0.527607
285 2 0.280537 0.439747 0.575309
286 1 0.0117913 0.166546 0.979467
287 2 0.011696 0.168718 0.0127286
288 2 0.0133564 0.134882 0.970451
289 1 0.318516 0.62428 0.173656
290 2 0.319185 0.636832 0.142856
291 2 0.314358 0.593994 0.172334
292 1 0.159286 0.388695 0.66575
293 2 0.162313 0.367774 0.641842
294 2 0.149958 0.398814 0.659264
295 1 0.214392 0.355711 0.664285
296 2 0.215738 0.331861 0.687136
297 2 0.216169 0.385504 0.678012
298 1 0.319482 0.462377 0.197055
299 2 0.316057 0.432468 0.20634
300 2 0.318555 0.483807 0.2224
ITEM: TIMESTEP
7300
ITEM: NUMBER OF ATOMS
300
ITEM: BOX BOUNDS pp ff pp
0.0000000000000000e+00 1.0000000000000000e+02
0.0000000000000000e+00 3.0000000000000000e+01
0.0000000000000000e+00 3.0000000000000000e+01
ITEM: ATOMS id type xs ys zs
1 1 0.372104 0.79735 0.130656
2 2 0.365059 0.790449 0.153286
3 2 0.378074 0.77088 0.12687
4 1 0.614546 0.384464 0.182427
5 2 0.606544 0.370364 0.168257
6 2 0.612095 0.414684 0.193875
7 1 0.00606746 0.261395 0.0434465
8 2 0.00785033 0.294123 0.0412944
9 2 0.00950361 0.2462 0.016078
10 1 0.557643 0.417552 0.244343
11 2 0.549365 0.41886 0.225686
12 2 0.564309 0.439597 0.232879
13 1 0.883186 0.511458 0.254685
14 2 0.88948 0.517466 0.229487
15 2 0.874333 0.501851 0.242524
16 1 0.296089 0.464321 0.693602
17 2 0.305223 0.477134 0.689132
18 2 0.296778 0.436082 0.711162
19 1 0.302612 0.259296 0.606401
20 2 0.301356 0.24864 0.637707
21 2 0.302238 0.233311 0.58556
22 1 0.13623 0.398438 0.598695
23 2 0.138739 0.430706 0.598712
24 2 0.142407 0.381634 0.578578
25 1 0.352383 0.706397 0.356498
26 2 0.357115 0.715759 0.38433
27 2 0.344996 0.727882 0.349922
28 1 0.575269 0.4906 0.345157
29 2 0.584634 0.498486 0.336529
30 2 0.573859 0.457845 0.341135
31 1 0.572754 0.405713 0.327487
32 2 0.567812 0.410902 0.298979
33 2 0.576158 0.374378 0.328218
34 1 0.163654 0.471317 0.695558
35 2 0.161626 0.43996 0.686495
36 2 0.156284 0.482827 0.714924
37 1 0.292565 0.378811 0.731707
38 2 0.292273 0.364669 0.701538
39 2 0.290933 0.355624 0.755028
40 1 0.325613 0.388936 0.420218
41 2 0.32829 0.364318 0.440844
42 2 0.333805 0.40354 0.407879
43 1 0.156945 0.315121 0.472002
44 2 0.14794 0.310787 0.458168
45 2 0.163226 0.291796 0.460654
46 1 0.550873 0.528477 0.33696
47 2 0.547149 0.540103 0.365628
48 2 0.56002 0.516095 0.342264
49 1 0.569619 0.49724 0.23851
50 2 0.573711 0.511823 0.265201
51 2 0.559772 0.503035 0.238243
52 1 0.835128 0.797272 0.667216
53 2 0.837333 0.764996 0.663301
54 2 0.827749 0.800443 0.68949
55 1 0.687776 0.655948 0.970646
56 2 0.691279 0.624728 0.970976
57 2 0.69308 0.674645 0.991835
58 1 0.269416 0.571746 0.632918
59 2 0.268214 0.585721 0.602922
60 2 0.260725 0.558769 0.643089
61 1 0.183645 0.337983 0.733215
62 2 0.189071 0.361028 0.749118
63 2 0.175269 0.351916 0.721491
64 1 0.298014 0.370475 0.502392
65 2 0.296332 0.398345 0.519798
66 2 0.298451 0.377773 0.4699
67 1 0.329598 0.587647 0.371374
68 2 0.339109 0.577522 0.369474
69 2 0.32638 0.596327 0.341032
70 1 0.859704 0.479962 0.232686
71 2 0.86031 0.477485 0.265866
72 2 0.853936 0.455432 0.220864
73 1 0.00326922 0.153865 0.0687753
74 2 0.00327913 0.13215 0.0940651
75 2 0.998318 0.181389 0.0777858
76 1 0.860628 0.694643 0.528689
77 2 0.851763 0.703588 0.516117
78 2 0.866343 0.72171 0.532633
79 1 0.206209 0.31165 0.698699
80 2 0.208543 0.280921 0.709011
81 2 0.19741 0.32065 0.71173
82 1 0.610214 0.382835 0.291163
83 2 0.61915 0.3732 0.279715
84 2 0.606359 0.405823 0.27073
85 1 0.275884 0.434014 0.637004
86 2 0.279822 0.443958 0.665985
87 2 0.266745 0.421556 0.642297
88 1 0.487077 0.715594 0.926295
89 2 0.488146 0.747725 0.934418
90 2 0.4798 0.712485 0.903644
91 1 0.329376 0.591175 0.272891
92 2 0.326158 0.597075 0.241887
93 2 0.337226 0.610735 0.279505
94 1 0.462788 0.709511 0.778258
95 2 0.471673 0.695193 0.772887
96 2 0.461847 0.736258 0.758615
97 1 0.589538 0.328852 0.303538
98 2 0.596803 0.351595 0.306267
99 2 0.593378 0.298402 0.30802
100 1 0.176465 0.323151 0.609276
101 2 0.174229 0.295216 0.625864
102 2 0.18628 0.323913 0.602935
103 1 0.282439 0.644948 0.529652
104 2 0.283254 0.675539 0.542611
105 2 0.291535 0.631433 0.526621
106 1 0.28739 0.340311 0.643987
107 2 0.289019 0.367586 0.62561
108 2 0.293216 0.315515 0.633077
109 1 0.213758 0.433728 0.679987
110 2 0.213339 0.438184 0.712991
111 2 0.205899 0.448541 0.665655
112 1 0.315688 0.601237 0.0510517
113 2 0.309041 0.625317 0.0573963
114 2 0.31591 0.579811 0.0765754
115 1 0.488079 0.66193 0.768152
116 2 0.491986 0.637872 0.74911
117 2 0.492501 0.661643 0.798047
118 1 0.293744 0.667821 0.0368639
119 2 0.293141 0.699861 0.0458335
120 2 0.297378 0.665695 0.00588268
121 1 0.0208364 0.245437 0.9679
122 2 0.0174936 0.214033 0.967044
123 2 0.0230864 0.255411 0.936991
124 1 0.127293 0.313858 0.452407
125 2 0.118336 0.305546 0.440136
126 2 0.126469 0.320126 0.48503
127 1 0.856725 0.661328 0.604231
128 2 0.857498 0.672643 0.572983
129 2 0.865866 0.657231 0.617113
130 1 0.5932 0.437401 0.222672
131 2 0.588647 0.414056 0.204347
132 2 0.587562 0.464922 0.223384
133 1 0.221177 0.458422 0.792394
134 2 0.223461 0.490858 0.791374
135 2 0.228406 0.441853 0.808395
136 1 0.278072 0.534571 0.70869
137 2 0.282409 0.507783 0.695108
138 2 0.275733 0.556355 0.684694
139 1 0.415062 0.707337 0.147821
140 2 0.417174 0.738689 0.138955
141 2 0.419359 0.686237 0.126357
142 1 0.312391 0.596442 0.960106
143 2 0.321095 0.58666 0.946925
144 2 0.312414 0.590366 0.992881
145 1 0.276817 0.260325 0.679028
146 2 0.276618 0.239682 0.652864
147 2 0.279413 0.290869 0.668866
148 1 0.339299 0.336192 0.495638
149 2 0.345222 0.34329 0.52154
150 2 0.330532 0.324658 0.506776
151 1 0.833691 0.491362 0.294314
152 2 0.836315 0.522741 0.287245
153 2 0.841439 0.475486 0.308176
154 1 0.357863 0.766882 0.431609
155 2 0.355704 0.796026 0.446097
156 2 0.35651 0.742169 0.453519
157 1 0.82806 0.620296 0.596602
158 2 0.83787 0.622645 0.602633
159 2 0.825881 0.589324 0.58665
160 1 0.808187 0.0286888 0.243977
161 2 0.815196 0.033122 0.220618
162 2 0.803095 0.0570582 0.248239
163 1 0.585834 0.349875 0.170101
164 2 0.582465 0.335712 0.198108
165 2 0.585094 0.328178 0.144916
166 1 0.316141 0.319171 0.544116
167 2 0.312365 0.310344 0.573693
168 2 0.309525 0.338177 0.527883
169 1 0.98966 0.226858 0.106414
170 2 0.993068 0.234483 0.13681
171 2 0.996236 0.237076 0.0834745
172 1 0.126093 0.335814 0.539416
173 2 0.126334 0.363843 0.557439
174 2 0.135436 0.325581 0.533389
175 1 0.56673 0.323005 0.249874
176 2 0.559464 0.341146 0.263852
177 2 0.574725 0.322742 0.269896
178 1 0.345029 0.644037 0.421252
179 2 0.336949 0.62661 0.412204
180 2 0.348909 0.65918 0.394521
181 1 0.262942 0.320931 0.747208
182 2 0.267309 0.29352 0.735046
183 2 0.2578 0.336094 0.72297
184 1 0.741391 0.337576 0.435787
185 2 0.736149 0.365102 0.428856
186 2 0.740646 0.330735 0.468316
187 1 0.842707 0.417251 0.213228
188 2 0.836149 0.414816 0.238275
189 2 0.841544 0.391399 0.192545
190 1 0.310047 0.449507 0.380434
191 2 0.31456 0.476623 0.392664
192 2 0.314202 0.422212 0.393637
193 1 0.823565 0.412764 0.27483
194 2 0.825114 0.441953 0.290076
195 2 0.81849 0.39246 0.295143
196 1 0.261992 0.535643 0.778667
197 2 0.265783 0.523056 0.806828
198 2 0.268656 0.532272 0.754043
199 1 0.247253 0.530526 0.65757
200 2 0.250814 0.499457 0.655355
201 2 0.237655 0.529557 0.666885
202 1 0.189865 0.466284 0.665414
203 2 0.182091 0.446857 0.657529
204 2 0.186785 0.490948 0.68535
205 1 0.541774 0.517402 0.250911
206 2 0.53389 0.536356 0.243093
207 2 0.541662 0.510821 0.283586
208 1 0.800985 0.117826 0.261521
209 2 0.807057 0.114588 0.287806
210 2 0.796351 0.14733 0.262961
211 1 0.50841 0.654262 0.834567
212 2 0.507437 0.646924 0.86692
213 2 0.518061 0.659414 0.827513
214 1 0.310265 0.544315 0.13307
215 2 0.312689 0.516487 0.149547
216 2 0.301045 0.541271 0.120524
217 1 0.235001 0.538228 0.771029
218 2 0.234168 0.552661 0.741112
219 2 0.244675 0.534541 0.778634
220 1 0.835087 0.69874 0.651552
221 2 0.828123 0.682638 0.633862
222 2 0.844171 0.688611 0.641973
223 1 0.204312 0.32123 0.602392
224 2 0.208009 0.348231 0.617567
225 2 0.209745 0.294533 0.610787
226 1 0.302566 0.672415 0.946396
227 2 0.295529 0.672509 0.922715
228 2 0.305938 0.641341 0.950779
229 1 0.866307 0.78799 0.535516
230 2 0.867569 0.816944 0.519545
231 2 0.858167 0.789773 0.554795
232 1 0.466436 0.709165 0.86286
233 2 0.464535 0.713255 0.830391
234 2 0.460975 0.683843 0.874629
235 1 0.319307 0.497681 0.264952
236 2 0.315283 0.494582 0.295309
237 2 0.322577 0.528902 0.260757
238 1 0.155435 0.344537 0.556624
239 2 0.15661 0.33433 0.525134
240 2 0.163936 0.339673 0.573486
241 1 0.00595656 0.0976655 0.141349
242 2 0.00286224 0.0802604 0.16784
243 2 0.0155229 0.106424 0.145539
244 1 0.195745 0.412125 0.759803
245 2 0.201006 0.426796 0.784058
246 2 0.192094 0.435386 0.739262
247 1 0.383889 0.711063 0.13345
248 2 0.383188 0.693295 0.105344
249 2 0.393188 0.708779 0.145494
250 1 0.856196 0.463003 0.328461
251 2 0.864002 0.472713 0.346896
252 2 0.856291 0.429811 0.325409
253 1 0.245513 0.426597 0.643886
254 2 0.240387 0.400716 0.656107
255 2 0.239681 0.443904 0.623059
256 1 0.5032 0.637924 0.916883
257 2 0.496211 0.661511 0.920342
258 2 0.506694 0.629322 0.946908
259 1 0.301288 0.230486 0.705797
260 2 0.29217 0.216961 0.707874
261 2 0.305602 0.23017 0.735867
262 1 0.0561926 0.0368859 0.484457
263 2 0.0604981 0.0645992 0.496167
264 2 0.0492537 0.0450392 0.461881
265 1 0.816829 0.0813732 0.329136
266 2 0.82535 0.0756939 0.345636
267 2 0.813732 0.0531363 0.314742
268 1 0.632401 0.360424 0.244671
269 2 0.642398 0.36108 0.244225
270 2 0.628867 0.375791 0.217537
271 1 0.846751 0.829649 0.587903
272 2 0.843512 0.827547 0.619369
273 2 0.841813 0.853954 0.572109
274 1 0.879721 0.505157 0.351003
275 2 0.88765 0.519927 0.364946
276 2 0.88042 0.507245 0.317817
277 1 0.864992 0.368559 0.287432
278 2 0.868758 0.386212 0.262097
279 2 0.872351 0.360269 0.308427
280 1 0.354353 0.693621 0.485273
281 2 0.36091 0.679528 0.506124
282 2 0.350838 0.670584 0.464224
283 1 0.292196 0.442523 0.5615
284 2 0.29559 0.473632 0.565419
285 2 0.285159 0.436271 0.584343
286 1 0.0111911 0.168641 0.982294
287 2 0.0114528 0.166002 0.0155118
288 2 0.00242549 0.157241 0.971007
289 1 0.321479 0.603507 0.180489
290 2 0.325849 0.623678 0.158306
291 2 0.315564 0.581863 0.164556
292 1 0.163996 0.382408 0.664074
293 2 0.170893 0.362568 0.650325
294 2 0.154892 0.372688 0.654296
295 1 0.22595 0.359652 0.658405
296 2 0.219964 0.337901 0.673893
297 2 0.224003 0.390449 0.669381
298 1 0.319313 0.463819 0.159638
299 2 0.314137 0.436865 0.150318
300 2 0.319813 0.46499 0.192909
ITEM: TIMESTEP
7400
ITEM: NUMBER OF ATOMS
300
ITEM: BOX BOUNDS pp ff pp
0.0000000000000000e+00 1.0000000000000000e+02
0.0000000000000000e+00 3.0000000000000000e+01
0.0000000000000000e+00 3.0000000000000000e+01
ITEM: ATOMS id type xs ys zs
1 1 0.364505 0.808068 0.14903
2 2 0.360719 0.820293 0.120705
3 2 0.370311 0.781815 0.14215
4 1 0.617273 0.406313 0.178421
5 2 0.612427 0.391873 0.153089
6 2 0.610679 0.421287 0.198518
7 1 0.00445055 0.282434 0.0192518
8 2 0.0109966 0.258382 0.0117357
9 2 0.00528548 0.307255 0.997177
10 1 0.553686 0.399338 0.248634
11 2 0.544391 0.409164 0.256022
12 2 0.558823 0.425052 0.236114
13 1 0.883922 0.520522 0.251434
14 2 0.892188 0.518151 0.232828
15 2 0.876871 0.500355 0.239103
16 1 0.293024 0.442537 0.717114
17 2 0.302389 0.437513 0.706557
18 2 0.289754 0.415293 0.732925
19 1 0.312711 0.274617 0.642175
20 2 0.306167 0.271635 0.667202
21 2 0.316741 0.244842 0.635539
22 1 0.147056 0.419494 0.61587
23 2 0.144837 0.445809 0.596793
24 2 0.149542 0.393686 0.596471
25 1 0.347731 0.723442 0.364011
26 2 0.354703 0.740697 0.380543
27 2 0.343829 0.742524 0.339974
28 1 0.579069 0.495676 0.325859
29 2 0.58642 0.502741 0.347323
30 2 0.574714 0.466977 0.33462
31 1 0.569305 0.402152 0.328313
32 2 0.562575 0.401625 0.303664
33 2 0.576134 0.378358 0.32313
34 1 0.158674 0.448151 0.70734
35 2 0.160356 0.420695 0.725391
36 2 0.1534 0.440183 0.680163
37 1 0.292724 0.347227 0.721371
38 2 0.2864 0.337262 0.697549
39 2 0.296226 0.320625 0.737714
40 1 0.320084 0.408859 0.411106
41 2 0.322739 0.393226 0.439185
42 2 0.328154 0.422796 0.397201
43 1 0.152633 0.314161 0.483069
44 2 0.142871 0.312998 0.475929
45 2 0.157805 0.299143 0.458814
46 1 0.55843 0.551066 0.319335
47 2 0.557838 0.564917 0.34959
48 2 0.566832 0.533128 0.317132
49 1 0.569662 0.465222 0.231996
50 2 0.572469 0.474651 0.262568
51 2 0.561025 0.480063 0.224116
52 1 0.834423 0.808677 0.641694
53 2 0.831992 0.776681 0.646346
54 2 0.828865 0.827853 0.661696
55 1 0.690578 0.640999 0.986593
56 2 0.697582 0.62043 0.998549
57 2 0.683113 0.643568 0.00862584
58 1 0.270041 0.577767 0.643782
59 2 0.264724 0.602777 0.656874
60 2 0.265011 0.549185 0.647393
61 1 0.19467 0.362734 0.716218
62 2 0.194068 0.384732 0.741181
63 2 0.185819 0.36065 0.700847
64 1 0.300102 0.368992 0.53222
65 2 0.298142 0.401449 0.536091
66 2 0.303927 0.363767 0.501868
67 1 0.338251 0.560688 0.353471
68 2 0.34308 0.53363 0.342522
69 2 0.333752 0.575827 0.327838
70 1 0.860719 0.475252 0.227116
71 2 0.853212 0.49479 0.237273
72 2 0.857084 0.450584 0.208254
73 1 0.998039 0.12649 0.0708379
74 2 0.000792295 0.120663 0.102349
75 2 0.996978 0.159306 0.0661829
76 1 0.867409 0.700994 0.564399
77 2 0.866258 0.700182 0.531297
78 2 0.87217 0.728999 0.573061
79 1 0.213943 0.305373 0.688997
80 2 0.220731 0.302548 0.71331
81 2 0.2079 0.331123 0.695502
82 1 0.607854 0.375181 0.307991
83 2 0.617573 0.380257 0.302013
84 2 0.602557 0.400786 0.296001
85 1 0.284146 0.421463 0.633309
86 2 0.287962 0.42752 0.663518
87 2 0.275511 0.437918 0.629872
88 1 0.488548 0.699313 0.918609
89 2 0.494809 0.725178 0.916036
90 2 0.47993 0.706657 0.903378
91 1 0.330237 0.559041 0.240754
92 2 0.324095 0.576348 0.220947
93 2 0.338553 0.551227 0.22397
94 1 0.466717 0.70788 0.781858
95 2 0.475877 0.695336 0.777223
96 2 0.462623 0.715103 0.752316
97 1 0.585201 0.323979 0.318782
98 2 0.594151 0.33545 0.309318
99 2 0.586278 0.304455 0.34556
100 1 0.176368 0.309334 0.61385
101 2 0.180025 0.279614 0.622749
102 2 0.183628 0.332203 0.615464
103 1 0.283962 0.622686 0.531142
104 2 0.289368 0.649565 0.539141
105 2 0.279181 0.611535 0.558212
106 1 0.286054 0.328887 0.631043
107 2 0.28334 0.360738 0.627194
108 2 0.296031 0.326653 0.630608
109 1 0.212713 0.442408 0.672874
110 2 0.215115 0.452064 0.703757
111 2 0.203308 0.45153 0.666157
112 1 0.317424 0.588808 0.0427014
113 2 0.313156 0.618413 0.0483865
114 2 0.31323 0.565806 0.0623634
115 1 0.490898 0.681816 0.767014
116 2 0.497709 0.705875 0.771119
117 2 0.493965 0.654131 0.782512
118 1 0.303906 0.665288 0.0453236
119 2 0.301662 0.69493 0.0586077
120 2 0.30432 0.668018 0.0121308
121 1 0.0241709 0.234422 0.985442
122 2 0.0214185 0.202396 0.986568
123 2 0.0331803 0.236881 0.971187
124 1 0.12684 0.301405 0.465109
125 2 0.118704 0.283734 0.457144
126 2 0.125915 0.313094 0.496173
127 1 0.853739 0.639021 0.614264
128 2 0.858521 0.668297 0.614417
129 2 0.860423 0.614239 0.615082
130 1 0.593625 0.416012 0.227788
131 2 0.592407 0.390296 0.206971
132 2 0.586031 0.437387 0.224111
133 1 0.215882 0.485861 0.761265
134 2 0.220199 0.510872 0.744576
135 2 0.217809 0.489078 0.793815
136 1 0.276931 0.514786 0.739096
137 2 0.282164 0.486383 0.739227
138 2 0.279558 0.533081 0.712643
139 1 0.411154 0.700205 0.155006
140 2 0.413709 0.682833 0.18215
141 2 0.41783 0.694643 0.13082
142 1 0.318589 0.601576 0.950229
143 2 0.327166 0.590342 0.937286
144 2 0.317791 0.591353 0.981845
145 1 0.270341 0.258377 0.653012
146 2 0.265241 0.240084 0.63093
147 2 0.274697 0.28399 0.637386
148 1 0.332265 0.369461 0.486741
149 2 0.34189 0.365669 0.478538
150 2 0.330738 0.357591 0.517471
151 1 0.835079 0.502981 0.304444
152 2 0.83299 0.530814 0.321412
153 2 0.844366 0.492987 0.311717
154 1 0.365333 0.766405 0.426424
155 2 0.357826 0.785709 0.437022
156 2 0.365749 0.738793 0.445044
157 1 0.826595 0.634285 0.599435
158 2 0.835974 0.628392 0.60939
159 2 0.824758 0.617307 0.57141
160 1 0.809317 0.0344161 0.254347
161 2 0.810968 0.0254834 0.222708
162 2 0.80371 0.0620079 0.255012
163 1 0.584616 0.354757 0.167645
164 2 0.579684 0.331699 0.18523
165 2 0.579331 0.362655 0.140472
166 1 0.323299 0.332084 0.57042
167 2 0.320619 0.314484 0.597281
168 2 0.315201 0.346252 0.556938
169 1 0.995098 0.217072 0.0699424
170 2 0.992551 0.230825 0.0990958
171 2 0.998339 0.240811 0.0491866
172 1 0.124208 0.34124 0.545269
173 2 0.116568 0.361332 0.552937
174 2 0.13178 0.346762 0.566331
175 1 0.567454 0.317341 0.24498
176 2 0.561287 0.343304 0.248781
177 2 0.574073 0.31689 0.269961
178 1 0.338987 0.657264 0.41905
179 2 0.33778 0.624404 0.415165
180 2 0.342214 0.670598 0.390455
181 1 0.239673 0.307607 0.725275
182 2 0.249223 0.312502 0.71668
183 2 0.239091 0.302232 0.758115
184 1 0.729694 0.307603 0.45295
185 2 0.722281 0.296082 0.433774
186 2 0.728582 0.340443 0.457306
187 1 0.839666 0.396556 0.196995
188 2 0.83185 0.410791 0.212147
189 2 0.8375 0.364778 0.189989
190 1 0.310086 0.433628 0.336856
191 2 0.300275 0.439847 0.335166
192 2 0.312436 0.42365 0.367681
193 1 0.822407 0.432694 0.261402
194 2 0.825715 0.464118 0.262844
195 2 0.82017 0.422115 0.292119
196 1 0.25436 0.52533 0.785453
197 2 0.256288 0.524773 0.818156
198 2 0.262822 0.520032 0.768498
199 1 0.247813 0.525507 0.663041
200 2 0.2471 0.4923 0.664698
201 2 0.245439 0.535692 0.632304
202 1 0.185714 0.47096 0.676656
203 2 0.18576 0.502631 0.666264
204 2 0.176312 0.459624 0.677277
205 1 0.544043 0.508356 0.254719
206 2 0.537752 0.52547 0.235266
207 2 0.548197 0.528965 0.276961
208 1 0.795663 0.111264 0.275201
209 2 0.803248 0.113943 0.296758
210 2 0.789291 0.136542 0.279791
211 1 0.500611 0.610207 0.812833
212 2 0.498614 0.618395 0.844452
213 2 0.503849 0.578697 0.811553
214 1 0.305187 0.53488 0.128454
215 2 0.31131 0.51319 0.143426
216 2 0.295705 0.525255 0.132861
217 1 0.232743 0.554448 0.739319
218 2 0.237677 0.5454 0.711774
219 2 0.238453 0.5486 0.766051
220 1 0.834564 0.718718 0.649116
221 2 0.828385 0.699566 0.667005
222 2 0.840597 0.699383 0.630867
223 1 0.202307 0.345296 0.613178
224 2 0.208944 0.369612 0.607669
225 2 0.20593 0.324256 0.636037
226 1 0.307038 0.680329 0.950183
227 2 0.307835 0.704355 0.927231
228 2 0.313154 0.655153 0.942323
229 1 0.877508 0.780784 0.578453
230 2 0.884235 0.802201 0.566221
231 2 0.868784 0.796466 0.582882
232 1 0.466957 0.724161 0.873284
233 2 0.465874 0.721025 0.840295
234 2 0.45797 0.727803 0.887441
235 1 0.326099 0.471861 0.268022
236 2 0.320118 0.4636 0.293428
237 2 0.32596 0.504927 0.263834
238 1 0.151768 0.343374 0.5681
239 2 0.152791 0.335584 0.53587
240 2 0.158149 0.325209 0.586231
241 1 0.00724233 0.0941706 0.148996
242 2 0.0115073 0.081894 0.176533
243 2 0.00505064 0.0691832 0.128179
244 1 0.192361 0.429534 0.768516
245 2 0.200673 0.446978 0.762251
246 2 0.18448 0.445329 0.755425
247 1 0.380658 0.734749 0.129892
248 2 0.377351 0.703374 0.132167
249 2 0.39013 0.736227 0.140476
250 1 0.859782 0.476067 0.327932
251 2 0.869108 0.48698 0.332998
252 2 0.860077 0.445993 0.313589
253 1 0.254565 0.437025 0.627094
254 2 0.249101 0.42331 0.651409
255 2 0.250093 0.431792 0.597743
256 1 0.494617 0.616057 0.916237
257 2 0.491833 0.648034 0.914668
258 2 0.495737 0.607124 0.948134
259 1 0.293209 0.24873 0.711457
260 2 0.284371 0.252588 0.696346
261 2 0.29498 0.216263 0.716167
262 1 0.057661 0.0347964 0.442983
263 2 0.0548957 0.00280128 0.444551
264 2 0.0646525 0.0407876 0.46605
265 1 0.819818 0.100647 0.315219
266 2 0.82796 0.111563 0.299243
267 2 0.816649 0.0723478 0.301121
268 1 0.63254 0.378782 0.26356
269 2 0.641922 0.390295 0.262814
270 2 0.62747 0.390822 0.237472
271 1 0.848466 0.819423 0.567177
272 2 0.842544 0.823226 0.593766
273 2 0.842845 0.816203 0.539797
274 1 0.881965 0.526405 0.339299
275 2 0.889064 0.547263 0.350078
276 2 0.880563 0.530851 0.306596
277 1 0.862525 0.400393 0.284236
278 2 0.860984 0.369447 0.272963
279 2 0.865206 0.42011 0.25889
280 1 0.354797 0.692751 0.477955
281 2 0.351159 0.680033 0.50628
282 2 0.349012 0.683394 0.452425
283 1 0.294699 0.45903 0.553213
284 2 0.297148 0.490309 0.545083
285 2 0.293643 0.456704 0.586278
286 1 0.0104809 0.149767 0.995407
287 2 0.0115302 0.136022 0.0255725
288 2 0.0011542 0.144784 0.984464
289 1 0.316781 0.605365 0.177743
290 2 0.319472 0.634686 0.164667
291 2 0.311884 0.587504 0.154817
292 1 0.166902 0.360196 0.68465
293 2 0.170132 0.345542 0.656714
294 2 0.157964 0.374094 0.679132
295 1 0.234618 0.387674 0.674909
296 2 0.235379 0.360626 0.694224
297 2 0.22524 0.399191 0.675966
298 1 0.3192 0.465818 0.178641
299 2 0.319366 0.439878 0.157714
300 2 0.323249 0.456876 0.207779
ITEM: TIMESTEP
7500
ITEM: NUMBER OF ATOMS
300
ITEM: BOX BOUNDS pp ff pp
0.0000000000000000e+00 1.0000000000000000e+02
0.0000000000000000e+00 3.0000000000000000e+01
0.0000000000000000e+00 3.0000000000000000e+01
ITEM: ATOMS id type xs ys zs
1 1 0.364352 0.820535 0.147919
2 2 0.369887 0.831012 0.12221
3 2 0.368689 0.793927 0.161854
4 1 0.620988 0.434956 0.207467
5 2 0.623977 0.460469 0.188469
6 2 0.614445 0.416318 0.190494
7 1 0.00573619 0.279822 0.00218938
8 2 0.0135084 0.259013 0.99956
9 2 0.00520411 0.298861 0.974886
10 1 0.547806 0.400589 0.274706
11 2 0.541688 0.38409 0.254137
12 2 0.547657 0.433054 0.267161
13 1 0.882099 0.517879 0.236883
14 2 0.887699 0.491656 0.228219
15 2 0.8725 0.511476 0.230077
16 1 0.282885 0.407708 0.751893
17 2 0.284411 0.415168 0.78398
18 2 0.285893 0.376465 0.746026
19 1 0.318128 0.31435 0.671134
20 2 0.311352 0.302495 0.692589
21 2 0.321011 0.34477 0.680797
22 1 0.1593 0.412183 0.615252
23 2 0.167775 0.420052 0.599402
24 2 0.153952 0.391224 0.596438
25 1 0.340255 0.724867 0.366544
26 2 0.349005 0.734545 0.379461
27 2 0.338089 0.743744 0.340037
28 1 0.580492 0.4816 0.336694
29 2 0.587681 0.481679 0.359862
30 2 0.574474 0.455423 0.341546
31 1 0.566785 0.410398 0.342865
32 2 0.558492 0.395329 0.331908
33 2 0.573589 0.387395 0.35108
34 1 0.162912 0.426541 0.701422
35 2 0.157742 0.402784 0.717225
36 2 0.161227 0.424396 0.668636
37 1 0.289676 0.328035 0.703036
38 2 0.286534 0.340893 0.674121
39 2 0.289233 0.294766 0.701585
40 1 0.325863 0.391876 0.407857
41 2 0.328137 0.385316 0.439647
42 2 0.333724 0.406017 0.392875
43 1 0.15318 0.32373 0.480435
44 2 0.145391 0.302991 0.483066
45 2 0.155323 0.328559 0.448237
46 1 0.563885 0.541201 0.288158
47 2 0.560412 0.564461 0.309041
48 2 0.56926 0.518869 0.305229
49 1 0.577899 0.460688 0.235276
50 2 0.580712 0.46406 0.267086
51 2 0.569639 0.478671 0.229841
52 1 0.836308 0.800543 0.610059
53 2 0.833502 0.770549 0.621194
54 2 0.832469 0.824193 0.629758
55 1 0.69425 0.630127 0.000990994
56 2 0.693751 0.615714 0.0310016
57 2 0.68657 0.619834 0.982289
58 1 0.267359 0.578618 0.672012
59 2 0.262171 0.598839 0.692091
60 2 0.261551 0.568911 0.646671
61 1 0.194193 0.367389 0.72558
62 2 0.193423 0.394415 0.744923
63 2 0.185698 0.349873 0.727154
64 1 0.305539 0.386535 0.539641
65 2 0.300373 0.414657 0.544518
66 2 0.313619 0.393069 0.521123
67 1 0.331827 0.578817 0.344799
68 2 0.32339 0.562357 0.351811
69 2 0.332686 0.582358 0.311778
70 1 0.856832 0.511284 0.197427
71 2 0.850071 0.529857 0.213496
72 2 0.852962 0.481223 0.191029
73 1 0.00421272 0.134806 0.0723722
74 2 0.00308937 0.121111 0.102531
75 2 0.998174 0.161229 0.0695914
76 1 0.87708 0.683935 0.586002
77 2 0.885051 0.678118 0.566733
78 2 0.877484 0.715134 0.59766
79 1 0.213683 0.320779 0.6506
80 2 0.221969 0.338571 0.656232
81 2 0.208823 0.316014 0.67934
82 1 0.601701 0.357759 0.276773
83 2 0.611162 0.363931 0.285627
84 2 0.600902 0.358988 0.243569
85 1 0.281998 0.433369 0.656408
86 2 0.283233 0.42176 0.687383
87 2 0.272233 0.435203 0.649465
88 1 0.486857 0.687916 0.906388
89 2 0.492324 0.698492 0.88056
90 2 0.47763 0.700589 0.904214
91 1 0.329348 0.561682 0.248578
92 2 0.323846 0.573723 0.223483
93 2 0.335777 0.539029 0.236803
94 1 0.473803 0.711967 0.806672
95 2 0.483416 0.707223 0.798811
96 2 0.468226 0.688344 0.792266
97 1 0.585291 0.34346 0.344362
98 2 0.591722 0.349446 0.319549
99 2 0.588385 0.316997 0.361812
100 1 0.17414 0.302995 0.607718
101 2 0.178808 0.274717 0.599392
102 2 0.18007 0.328965 0.600934
103 1 0.29102 0.552449 0.553348
104 2 0.298578 0.566224 0.536416
105 2 0.286013 0.57621 0.56972
106 1 0.281111 0.356797 0.615538
107 2 0.281631 0.388251 0.626436
108 2 0.289656 0.348767 0.600197
109 1 0.209095 0.420869 0.665414
110 2 0.203996 0.449471 0.667461
111 2 0.204871 0.398132 0.685312
112 1 0.311297 0.572351 0.0353538
113 2 0.311664 0.605613 0.0371695
114 2 0.312665 0.559391 0.0657245
115 1 0.498129 0.675083 0.776911
116 2 0.507859 0.668599 0.772766
117 2 0.492875 0.646962 0.773221
118 1 0.312731 0.657023 0.0491091
119 2 0.314935 0.683089 0.0685431
120 2 0.311439 0.667421 0.0177329
121 1 0.0233981 0.207758 0.00387224
122 2 0.0195924 0.177704 0.997023
123 2 0.02916 0.205782 0.0310443
124 1 0.126638 0.290882 0.494778
125 2 0.120817 0.263778 0.494654
126 2 0.124885 0.3086 0.522402
127 1 0.854126 0.636682 0.620707
128 2 0.862076 0.65323 0.609088
129 2 0.856202 0.604099 0.621964
130 1 0.59642 0.403997 0.176249
131 2 0.589826 0.379759 0.169882
132 2 0.59217 0.426989 0.195789
133 1 0.217763 0.528039 0.784882
134 2 0.223996 0.526313 0.758874
135 2 0.218633 0.557875 0.799459
136 1 0.273845 0.504396 0.737509
137 2 0.276041 0.471889 0.738409
138 2 0.273402 0.514579 0.705803
139 1 0.402804 0.724524 0.146559
140 2 0.40612 0.693223 0.143525
141 2 0.410491 0.745669 0.143812
142 1 0.318873 0.580979 0.950131
143 2 0.326124 0.560467 0.939826
144 2 0.315993 0.572291 0.980847
145 1 0.268137 0.289037 0.653219
146 2 0.260445 0.274685 0.63748
147 2 0.272247 0.312085 0.633414
148 1 0.331641 0.385116 0.507939
149 2 0.341172 0.393197 0.513972
150 2 0.32908 0.358879 0.526644
151 1 0.834627 0.502211 0.32571
152 2 0.833171 0.530977 0.341836
153 2 0.843626 0.489988 0.333578
154 1 0.364671 0.74209 0.415553
155 2 0.372571 0.746091 0.43559
156 2 0.357165 0.728274 0.432711
157 1 0.825975 0.655003 0.598699
158 2 0.83416 0.65064 0.617347
159 2 0.827567 0.642669 0.56819
160 1 0.806668 0.0404036 0.259462
161 2 0.802932 0.0308286 0.230062
162 2 0.800506 0.0625615 0.273543
163 1 0.579921 0.331549 0.160589
164 2 0.576327 0.335113 0.191491
165 2 0.573951 0.311202 0.143236
166 1 0.325073 0.316979 0.567828
167 2 0.326687 0.3069 0.599143
168 2 0.316926 0.336285 0.56688
169 1 0.991636 0.214908 0.0590803
170 2 0.984967 0.239726 0.0600802
171 2 0.997701 0.219147 0.0329173
172 1 0.121565 0.336878 0.576496
173 2 0.117406 0.361612 0.594023
174 2 0.131489 0.337597 0.580516
175 1 0.568659 0.336122 0.243823
176 2 0.562402 0.360182 0.253686
177 2 0.576769 0.33617 0.263323
178 1 0.34635 0.641138 0.389723
179 2 0.343007 0.61353 0.374733
180 2 0.345494 0.66701 0.3689
181 1 0.241565 0.347105 0.732584
182 2 0.250978 0.335857 0.732251
183 2 0.238743 0.352865 0.76404
184 1 0.720592 0.273589 0.463297
185 2 0.72702 0.297326 0.472705
186 2 0.720321 0.271993 0.430014
187 1 0.848337 0.416277 0.214062
188 2 0.841312 0.436609 0.226283
189 2 0.844054 0.393385 0.194485
190 1 0.312507 0.426907 0.333873
191 2 0.304182 0.410127 0.326159
192 2 0.315366 0.418992 0.364819
193 1 0.826115 0.443227 0.256984
194 2 0.828602 0.465185 0.280653
195 2 0.819847 0.420567 0.269675
196 1 0.256875 0.53888 0.802026
197 2 0.261447 0.560318 0.822502
198 2 0.263545 0.526193 0.780675
199 1 0.250776 0.546984 0.618746
200 2 0.25472 0.516732 0.623549
201 2 0.242299 0.544173 0.601286
202 1 0.181426 0.490581 0.68339
203 2 0.175864 0.516108 0.672632
204 2 0.175446 0.466229 0.694381
205 1 0.546679 0.482244 0.253244
206 2 0.541198 0.496016 0.229004
207 2 0.5533 0.504521 0.264544
208 1 0.791786 0.108915 0.293378
209 2 0.800375 0.121633 0.304774
210 2 0.784606 0.132044 0.295195
211 1 0.488408 0.586032 0.79216
212 2 0.489134 0.587201 0.825385
213 2 0.488528 0.554255 0.782103
214 1 0.311311 0.52892 0.112062
215 2 0.31412 0.509043 0.137127
216 2 0.303888 0.514443 0.0950506
217 1 0.238323 0.544744 0.718191
218 2 0.24126 0.540495 0.686613
219 2 0.24627 0.543098 0.738356
220 1 0.827407 0.730587 0.647246
221 2 0.83549 0.713865 0.657528
222 2 0.82095 0.709392 0.633155
223 1 0.194958 0.36247 0.592128
224 2 0.195734 0.368594 0.559464
225 2 0.203554 0.370374 0.607217
226 1 0.312498 0.66162 0.956516
227 2 0.31518 0.67833 0.929095
228 2 0.313525 0.628892 0.951196
229 1 0.877109 0.77713 0.614418
230 2 0.883823 0.799875 0.60478
231 2 0.868647 0.781281 0.597145
232 1 0.46454 0.738526 0.885605
233 2 0.466688 0.729297 0.854385
234 2 0.460208 0.768567 0.885275
235 1 0.322254 0.467028 0.26181
236 2 0.318583 0.451233 0.288491
237 2 0.321737 0.499965 0.266638
238 1 0.149161 0.327149 0.577617
239 2 0.150851 0.323909 0.544923
240 2 0.157138 0.316379 0.594593
241 1 0.00543922 0.0895258 0.151385
242 2 0.0153552 0.086249 0.154187
243 2 0.00102331 0.0774701 0.178755
244 1 0.200608 0.458624 0.750967
245 2 0.207346 0.479487 0.764057
246 2 0.193486 0.476156 0.735467
247 1 0.376594 0.726363 0.165109
248 2 0.374884 0.715479 0.196095
249 2 0.386341 0.723622 0.158172
250 1 0.859093 0.471691 0.33748
251 2 0.864531 0.498917 0.331054
252 2 0.861717 0.447312 0.316497
253 1 0.255091 0.455224 0.621413
254 2 0.24754 0.43878 0.63581
255 2 0.256721 0.442778 0.590971
256 1 0.491318 0.593692 0.879682
257 2 0.488056 0.622732 0.89191
258 2 0.49741 0.579228 0.901807
259 1 0.287087 0.242083 0.68844
260 2 0.279214 0.256701 0.673991
261 2 0.285687 0.209085 0.689161
262 1 0.0631056 0.0444049 0.399954
263 2 0.0618878 0.0774249 0.397877
264 2 0.0550321 0.0307724 0.414133
265 1 0.819324 0.111637 0.307991
266 2 0.828916 0.120903 0.309733
267 2 0.818598 0.0832809 0.290637
268 1 0.626036 0.386262 0.292368
269 2 0.63565 0.377281 0.294231
270 2 0.62506 0.411403 0.270724
271 1 0.85785 0.823889 0.556745
272 2 0.850587 0.823071 0.579641
273 2 0.853875 0.830002 0.526776
274 1 0.877023 0.54329 0.324478
275 2 0.884985 0.561725 0.332655
276 2 0.878776 0.527565 0.295673
277 1 0.86787 0.419045 0.271103
278 2 0.860974 0.422372 0.247196
279 2 0.866 0.391462 0.288751
280 1 0.348767 0.693063 0.467604
281 2 0.339887 0.688627 0.482276
282 2 0.349182 0.674926 0.439671
283 1 0.290846 0.459137 0.570517
284 2 0.290473 0.491721 0.563601
285 2 0.285861 0.453138 0.598783
286 1 0.0135093 0.128011 0.987141
287 2 0.0124356 0.128279 0.020281
288 2 0.00652903 0.108347 0.973612
289 1 0.312971 0.599629 0.176204
290 2 0.309584 0.628684 0.164398
291 2 0.311822 0.575977 0.15303
292 1 0.16602 0.321321 0.704991
293 2 0.169856 0.326992 0.674734
294 2 0.162896 0.289715 0.706906
295 1 0.236593 0.413671 0.671474
296 2 0.237824 0.397682 0.700434
297 2 0.2278 0.429545 0.671601
298 1 0.321213 0.464174 0.163814
299 2 0.323026 0.436817 0.145753
300 2 0.322611 0.457412 0.196121
ITEM: TIMESTEP
7600
ITEM: NUMBER OF ATOMS
300
ITEM: BOX BOUNDS pp ff pp
0.0000000000000000e+00 1.0000000000000000e+02
0.0000000000000000e+00 3.0000000000000000e+01
0.0000000000000000e+00 3.0000000000000000e+01
ITEM: ATOMS id type xs ys zs
1 1 0.364129 0.822826 0.142475
2 2 0.359675 0.825038 0.112713
3 2 0.363447 0.791531 0.153726
4 1 0.61752 0.449576 0.226785
5 2 0.620801 0.467803 0.201108
6 2 0.609778 0.430903 0.21696
7 1 0.005301 0.260494 0.00310169
8 2 0.0124809 0.237299 1.00253
9 2 0.00889704 0.289128 0.990956
10 1 0.544143 0.39676 0.306563
11 2 0.53451 0.396093 0.315488
12 2 0.545569 0.420795 0.283961
13 1 0.879011 0.522728 0.247135
14 2 0.879861 0.489562 0.245385
15 2 0.871265 0.532671 0.228546
16 1 0.279627 0.412532 0.7569
17 2 0.281336 0.406194 0.789126
18 2 0.281738 0.385418 0.738832
19 1 0.322302 0.337583 0.648067
20 2 0.328055 0.358796 0.665195
21 2 0.316642 0.320075 0.66925
22 1 0.169192 0.402353 0.587111
23 2 0.179103 0.397923 0.586704
24 2 0.164639 0.373325 0.580938
25 1 0.3394 0.725662 0.32618
26 2 0.347445 0.72472 0.345955
27 2 0.332023 0.742076 0.341579
28 1 0.583587 0.481161 0.327282
29 2 0.588224 0.491216 0.355051
30 2 0.577072 0.45701 0.334778
31 1 0.567156 0.415751 0.350663
32 2 0.558022 0.411633 0.337729
33 2 0.572263 0.38719 0.348315
34 1 0.177447 0.398498 0.680759
35 2 0.173621 0.371462 0.695506
36 2 0.172794 0.403668 0.65171
37 1 0.290309 0.33978 0.699117
38 2 0.288157 0.351185 0.668629
39 2 0.286823 0.308708 0.702375
40 1 0.339083 0.368981 0.403043
41 2 0.340141 0.379334 0.434531
42 2 0.338002 0.335846 0.40258
43 1 0.148314 0.324527 0.490822
44 2 0.138803 0.31611 0.49676
45 2 0.148649 0.346895 0.466133
46 1 0.56779 0.526284 0.262653
47 2 0.573034 0.550227 0.24741
48 2 0.573696 0.510144 0.284172
49 1 0.583811 0.440137 0.243352
50 2 0.584864 0.454999 0.272982
51 2 0.577475 0.414508 0.246211
52 1 0.83721 0.809232 0.583748
53 2 0.83275 0.783037 0.598029
54 2 0.831936 0.81882 0.557101
55 1 0.700511 0.626798 0.00782953
56 2 0.690723 0.623556 0.00183408
57 2 0.705599 0.622922 0.979396
58 1 0.26796 0.543663 0.676029
59 2 0.271124 0.571509 0.691011
60 2 0.260253 0.550847 0.65604
61 1 0.200781 0.390543 0.707101
62 2 0.201894 0.408251 0.735096
63 2 0.191046 0.385544 0.701338
64 1 0.304955 0.371736 0.54156
65 2 0.297445 0.393567 0.544345
66 2 0.312284 0.38512 0.523251
67 1 0.328637 0.574024 0.351066
68 2 0.328325 0.541106 0.345923
69 2 0.321205 0.588683 0.334259
70 1 0.855636 0.534975 0.188776
71 2 0.847756 0.542499 0.207874
72 2 0.855796 0.50214 0.183057
73 1 0.00849496 0.142998 0.0636781
74 2 0.00583078 0.126335 0.091148
75 2 0.00312845 0.171034 0.0614195
76 1 0.883334 0.653844 0.607626
77 2 0.893217 0.657694 0.604308
78 2 0.878911 0.683739 0.607545
79 1 0.215648 0.323648 0.638002
80 2 0.224586 0.335231 0.628543
81 2 0.212253 0.341712 0.663627
82 1 0.596962 0.340829 0.261557
83 2 0.601763 0.36044 0.283244
84 2 0.597165 0.354835 0.231316
85 1 0.277454 0.456389 0.663466
86 2 0.275311 0.435386 0.688345
87 2 0.274286 0.486997 0.671388
88 1 0.486984 0.654916 0.884117
89 2 0.489086 0.663292 0.852623
90 2 0.482368 0.680341 0.899215
91 1 0.316998 0.56936 0.2643
92 2 0.316072 0.568889 0.231114
93 2 0.325442 0.585168 0.272616
94 1 0.475614 0.731838 0.800579
95 2 0.48279 0.708682 0.802205
96 2 0.468734 0.722573 0.778231
97 1 0.583247 0.342499 0.336382
98 2 0.589817 0.336515 0.311975
99 2 0.586993 0.331809 0.365381
100 1 0.182271 0.290036 0.635464
101 2 0.19049 0.271694 0.640376
102 2 0.184878 0.320225 0.62432
103 1 0.29891 0.523911 0.598987
104 2 0.302046 0.554942 0.592748
105 2 0.292831 0.524125 0.625453
106 1 0.28332 0.347227 0.599783
107 2 0.28356 0.378409 0.588029
108 2 0.292618 0.335022 0.601023
109 1 0.200985 0.453619 0.64009
110 2 0.19787 0.483653 0.650152
111 2 0.203565 0.435371 0.666625
112 1 0.314007 0.568715 0.0435161
113 2 0.313929 0.601938 0.0462115
114 2 0.311867 0.555111 0.0730991
115 1 0.49627 0.664511 0.802039
116 2 0.506223 0.66303 0.799141
117 2 0.492291 0.63532 0.792927
118 1 0.317541 0.656199 0.0243668
119 2 0.317744 0.689421 0.0270065
120 2 0.320023 0.647351 0.993312
121 1 0.0262388 0.197365 0.00203516
122 2 0.0245872 0.173789 0.979123
123 2 0.024385 0.185027 0.0323783
124 1 0.121359 0.288984 0.526943
125 2 0.115451 0.262091 0.527329
126 2 0.121426 0.303025 0.557174
127 1 0.858043 0.644327 0.633901
128 2 0.866927 0.641538 0.61886
129 2 0.859361 0.645768 0.666912
130 1 0.600542 0.38881 0.182951
131 2 0.595352 0.364333 0.168368
132 2 0.59459 0.415189 0.187607
133 1 0.209763 0.545656 0.763506
134 2 0.218904 0.556633 0.771399
135 2 0.203635 0.571655 0.759284
136 1 0.267165 0.500213 0.756391
137 2 0.271348 0.470614 0.750014
138 2 0.266422 0.517655 0.728093
139 1 0.398947 0.756796 0.144261
140 2 0.399497 0.784761 0.162308
141 2 0.401115 0.763611 0.112443
142 1 0.318071 0.548889 0.954277
143 2 0.313311 0.521395 0.944103
144 2 0.316721 0.552821 0.98707
145 1 0.259756 0.29991 0.62613
146 2 0.251071 0.316378 0.62476
147 2 0.266634 0.316238 0.608273
148 1 0.328095 0.401967 0.5074
149 2 0.334194 0.42607 0.518207
150 2 0.329047 0.375157 0.526952
151 1 0.834844 0.482855 0.338471
152 2 0.833274 0.504645 0.363148
153 2 0.844495 0.474133 0.337988
154 1 0.352796 0.724549 0.405861
155 2 0.356229 0.755519 0.410444
156 2 0.350489 0.711067 0.435361
157 1 0.833582 0.668725 0.590423
158 2 0.842839 0.66669 0.602861
159 2 0.833488 0.656482 0.559421
160 1 0.806034 0.0552782 0.261257
161 2 0.805929 0.023881 0.250067
162 2 0.799054 0.0589244 0.284848
163 1 0.580492 0.331402 0.165687
164 2 0.575279 0.336657 0.193643
165 2 0.574475 0.318508 0.142395
166 1 0.326872 0.327115 0.563368
167 2 0.327861 0.327264 0.596537
168 2 0.317222 0.330687 0.555386
169 1 0.990835 0.207361 0.0565252
170 2 0.983681 0.197103 0.0356159
171 2 0.995204 0.234701 0.0442152
172 1 0.12562 0.327347 0.605427
173 2 0.123497 0.329448 0.637933
174 2 0.135197 0.335543 0.600455
175 1 0.569467 0.363059 0.246403
176 2 0.561536 0.366971 0.266326
177 2 0.576268 0.343963 0.261648
178 1 0.34637 0.633088 0.406651
179 2 0.340887 0.615534 0.384997
180 2 0.352368 0.653919 0.389993
181 1 0.243285 0.416214 0.724247
182 2 0.248755 0.428578 0.749263
183 2 0.237459 0.391673 0.735725
184 1 0.713006 0.239648 0.471471
185 2 0.72239 0.231587 0.479705
186 2 0.708044 0.249281 0.49876
187 1 0.850298 0.431834 0.21169
188 2 0.842648 0.439655 0.231682
189 2 0.846779 0.421427 0.182275
190 1 0.323326 0.426223 0.3352
191 2 0.318409 0.398606 0.32627
192 2 0.326822 0.422683 0.366229
193 1 0.827119 0.456498 0.254599
194 2 0.832106 0.459293 0.283358
195 2 0.817798 0.446078 0.260692
196 1 0.260013 0.573784 0.803569
197 2 0.261742 0.574854 0.836382
198 2 0.262728 0.543994 0.791663
199 1 0.24628 0.548045 0.613018
200 2 0.246316 0.516434 0.602442
201 2 0.238109 0.563484 0.601575
202 1 0.18196 0.493805 0.708929
203 2 0.17349 0.500415 0.725369
204 2 0.180968 0.465133 0.692253
205 1 0.549546 0.462781 0.240935
206 2 0.555238 0.45281 0.215406
207 2 0.553286 0.490931 0.253713
208 1 0.789444 0.103594 0.325757
209 2 0.79843 0.116473 0.332686
210 2 0.783519 0.127428 0.31339
211 1 0.483072 0.588152 0.77233
212 2 0.482978 0.579207 0.80444
213 2 0.482864 0.560872 0.753189
214 1 0.30752 0.49333 0.115408
215 2 0.31404 0.472016 0.128989
216 2 0.300856 0.476438 0.0971792
217 1 0.237576 0.575888 0.759541
218 2 0.240575 0.558581 0.732863
219 2 0.245329 0.580574 0.780066
220 1 0.821269 0.751455 0.623717
221 2 0.820362 0.760863 0.655552
222 2 0.824557 0.720001 0.622421
223 1 0.194725 0.372368 0.597846
224 2 0.198604 0.402314 0.604718
225 2 0.201556 0.348785 0.603894
226 1 0.31837 0.631921 0.937971
227 2 0.320264 0.636418 0.905551
228 2 0.318163 0.599288 0.944733
229 1 0.874944 0.758008 0.630602
230 2 0.882728 0.777203 0.638937
231 2 0.869871 0.772375 0.605728
232 1 0.471206 0.734048 0.899992
233 2 0.471061 0.737046 0.866798
234 2 0.466569 0.760187 0.913736
235 1 0.313778 0.478157 0.261266
236 2 0.317456 0.465511 0.289566
237 2 0.313024 0.511278 0.264067
238 1 0.154423 0.328305 0.582673
239 2 0.154197 0.326332 0.549407
240 2 0.157583 0.299303 0.595286
241 1 0.999396 0.105741 0.141271
242 2 0.996331 0.121557 0.168777
243 2 0.993234 0.0802945 0.134809
244 1 0.20171 0.457788 0.761413
245 2 0.208201 0.482223 0.768198
246 2 0.193346 0.470861 0.748649
247 1 0.374914 0.737224 0.176044
248 2 0.375521 0.706153 0.187946
249 2 0.383309 0.744636 0.159518
250 1 0.85964 0.48151 0.335881
251 2 0.863092 0.509053 0.350716
252 2 0.865793 0.472861 0.311067
253 1 0.251107 0.46299 0.589535
254 2 0.243626 0.451385 0.608365
255 2 0.257544 0.438312 0.583077
256 1 0.48445 0.570265 0.867877
257 2 0.485548 0.602043 0.877251
258 2 0.488277 0.55024 0.891272
259 1 0.276296 0.258709 0.694777
260 2 0.269293 0.268743 0.6732
261 2 0.276896 0.225439 0.694303
262 1 0.0697046 0.061465 0.364903
263 2 0.0762077 0.0398595 0.378111
264 2 0.0640259 0.0458316 0.342356
265 1 0.816219 0.135011 0.290866
266 2 0.825802 0.143591 0.286736
267 2 0.814398 0.106589 0.274542
268 1 0.614396 0.398752 0.304212
269 2 0.622315 0.380797 0.294625
270 2 0.613663 0.425975 0.285131
271 1 0.862702 0.820868 0.569065
272 2 0.853277 0.822433 0.580096
273 2 0.865271 0.850189 0.555721
274 1 0.872898 0.568854 0.322825
275 2 0.881005 0.576535 0.340761
276 2 0.875712 0.555525 0.293748
277 1 0.874395 0.423635 0.249108
278 2 0.865902 0.428913 0.232325
279 2 0.877877 0.393201 0.242025
280 1 0.350593 0.677676 0.487237
281 2 0.352201 0.662106 0.516219
282 2 0.349846 0.655134 0.462808
283 1 0.287814 0.436369 0.584145
284 2 0.295182 0.45729 0.575762
285 2 0.283848 0.445843 0.613242
286 1 0.0163389 0.0927814 0.989083
287 2 0.0103441 0.108185 0.0108669
288 2 0.0220722 0.070735 0.00520281
289 1 0.316352 0.561907 0.175617
290 2 0.322926 0.576805 0.155393
291 2 0.313969 0.53198 0.163274
292 1 0.168989 0.318423 0.710969
293 2 0.173456 0.306595 0.683592
294 2 0.166442 0.293044 0.730843
295 1 0.229096 0.416207 0.644663
296 2 0.235146 0.415034 0.671179
297 2 0.222775 0.441837 0.647856
298 1 0.321989 0.443745 0.177891
299 2 0.328137 0.418187 0.184052
300 2 0.317518 0.45311 0.206198
ITEM: TIMESTEP
7700
ITEM: NUMBER OF ATOMS
300
ITEM: BOX BOUNDS pp ff pp
0.0000000000000000e+00 1.0000000000000000e+02
0.0000000000000000e+00 3.0000000000000000e+01
0.0000000000000000e+00 3.0000000000000000e+01
ITEM: ATOMS id type xs ys zs
1 1 0.370487 0.817177 0.16746
2 2 0.364697 0.834344 0.18853
3 2 0.365811 0.789121 0.158464
4 1 0.62223 0.446177 0.238109
5 2 0.630591 0.459949 0.226077
6 2 0.617685 0.428869 0.213984
7 1 0.0095876 0.253266 0.993099
8 2 0.0161634 0.228581 0.997719
9 2 0.0141673 0.282604 -0.00273877
10 1 0.546946 0.403872 0.29977
11 2 0.541019 0.41563 0.323908
12 2 0.54745 0.426091 0.274979
13 1 0.880779 0.54614 0.243316
14 2 0.877101 0.516188 0.251292
15 2 0.874611 0.561199 0.221829
16 1 0.283017 0.418071 0.735417
17 2 0.291923 0.414674 0.750195
18 2 0.281174 0.391292 0.716541
19 1 0.322446 0.339671 0.658088
20 2 0.321034 0.362853 0.681573
21 2 0.313754 0.324627 0.651361
22 1 0.164375 0.401094 0.585515
23 2 0.172682 0.382559 0.586382
24 2 0.157367 0.385344 0.567698
25 1 0.346099 0.723447 0.34082
26 2 0.348644 0.728479 0.372661
27 2 0.3367 0.733711 0.335913
28 1 0.584821 0.48226 0.298786
29 2 0.593117 0.468066 0.286745
30 2 0.580708 0.462247 0.321646
31 1 0.571396 0.412113 0.343258
32 2 0.563092 0.40877 0.324989
33 2 0.5776 0.386773 0.33683
34 1 0.167048 0.42104 0.677384
35 2 0.170265 0.392086 0.689945
36 2 0.162979 0.415796 0.64739
37 1 0.2843 0.350477 0.682846
38 2 0.282443 0.353042 0.650194
39 2 0.281579 0.320234 0.693533
40 1 0.334294 0.37956 0.427748
41 2 0.335669 0.405646 0.447987
42 2 0.330837 0.353717 0.445369
43 1 0.145119 0.306878 0.523054
44 2 0.137408 0.29334 0.539403
45 2 0.141861 0.32057 0.494669
46 1 0.566931 0.535936 0.251789
47 2 0.570169 0.567155 0.247326
48 2 0.573015 0.520088 0.272969
49 1 0.583719 0.427215 0.222156
50 2 0.579251 0.43805 0.24994
51 2 0.580317 0.396792 0.214612
52 1 0.838532 0.830133 0.544087
53 2 0.832073 0.811912 0.56185
54 2 0.833491 0.851444 0.524732
55 1 0.707421 0.624167 0.00818851
56 2 0.710076 0.645271 0.983952
57 2 0.713114 0.629524 0.0350641
58 1 0.262011 0.535297 0.679666
59 2 0.265655 0.562234 0.695091
60 2 0.256689 0.54477 0.653083
61 1 0.205754 0.406523 0.70309
62 2 0.19844 0.427535 0.711764
63 2 0.213643 0.411172 0.72304
64 1 0.305008 0.383137 0.480769
65 2 0.296025 0.394658 0.48982
66 2 0.311815 0.40732 0.484134
67 1 0.332606 0.574237 0.332231
68 2 0.330578 0.541635 0.333814
69 2 0.324528 0.59066 0.32145
70 1 0.858134 0.532184 0.18792
71 2 0.856548 0.525402 0.155715
72 2 0.85012 0.523163 0.205703
73 1 0.0024351 0.13075 0.0537429
74 2 0.00338321 0.116946 0.0839185
75 2 -0.000474167 0.162475 0.0569986
76 1 0.88445 0.629952 0.618532
77 2 0.892682 0.623413 0.600773
78 2 0.884037 0.662572 0.625251
79 1 0.216213 0.353236 0.621455
80 2 0.224788 0.366868 0.611045
81 2 0.213595 0.366684 0.65068
82 1 0.597455 0.327523 0.3013
83 2 0.60017 0.359341 0.297205
84 2 0.599496 0.310375 0.273537
85 1 0.277158 0.464416 0.652666
86 2 0.279352 0.446863 0.680044
87 2 0.271309 0.490179 0.660863
88 1 0.48228 0.622394 0.88345
89 2 0.488644 0.632777 0.859927
90 2 0.477459 0.648627 0.896283
91 1 0.309318 0.559623 0.278249
92 2 0.313117 0.550238 0.248877
93 2 0.303315 0.535642 0.289894
94 1 0.477061 0.753582 0.824114
95 2 0.483539 0.732412 0.81009
96 2 0.471605 0.768266 0.800351
97 1 0.574907 0.303945 0.34358
98 2 0.583934 0.309074 0.330182
99 2 0.575586 0.30527 0.37681
100 1 0.186463 0.299821 0.646473
101 2 0.195171 0.283772 0.649785
102 2 0.187539 0.324913 0.624824
103 1 0.303214 0.494264 0.616253
104 2 0.309004 0.520418 0.608865
105 2 0.296952 0.502472 0.640913
106 1 0.282675 0.331872 0.594125
107 2 0.284266 0.363886 0.5865
108 2 0.285082 0.312758 0.568022
109 1 0.203802 0.451581 0.616164
110 2 0.199801 0.481603 0.621813
111 2 0.203053 0.432956 0.643695
112 1 0.320517 0.521949 0.0326867
113 2 0.318429 0.553843 0.0394315
114 2 0.318318 0.503131 0.0592059
115 1 0.490222 0.684575 0.784993
116 2 0.498124 0.689053 0.765065
117 2 0.48715 0.65292 0.782931
118 1 0.315954 0.613624 0.0319522
119 2 0.314128 0.646205 0.0354938
120 2 0.32062 0.608315 0.00295047
121 1 0.0225316 0.172509 0.998456
122 2 0.0312982 0.157314 0.993326
123 2 0.0163748 0.15191 0.0147548
124 1 0.120968 0.299519 0.572919
125 2 0.115184 0.275799 0.586216
126 2 0.12729 0.310979 0.596064
127 1 0.858384 0.644804 0.656299
128 2 0.867554 0.639171 0.644255
129 2 0.85856 0.642624 0.689556
130 1 0.604734 0.40416 0.176168
131 2 0.60016 0.387137 0.151902
132 2 0.597875 0.418485 0.195745
133 1 0.213655 0.562288 0.760337
134 2 0.223349 0.570121 0.757977
135 2 0.208204 0.590222 0.761196
136 1 0.266551 0.491868 0.764199
137 2 0.272201 0.464546 0.761052
138 2 0.262418 0.499316 0.734774
139 1 0.390943 0.78325 0.127595
140 2 0.383451 0.802825 0.137813
141 2 0.398769 0.786955 0.148009
142 1 0.321786 0.518022 0.942237
143 2 0.312643 0.511933 0.930189
144 2 0.32165 0.515374 0.975462
145 1 0.261151 0.288941 0.650313
146 2 0.253543 0.310487 0.652237
147 2 0.267846 0.299998 0.628158
148 1 0.332969 0.418992 0.51112
149 2 0.342073 0.431448 0.517027
150 2 0.329771 0.402463 0.538033
151 1 0.837894 0.459534 0.335644
152 2 0.834958 0.454696 0.367139
153 2 0.847254 0.47127 0.335383
154 1 0.342987 0.73948 0.426754
155 2 0.336723 0.751557 0.449762
156 2 0.346346 0.70963 0.436486
157 1 0.840224 0.692602 0.603661
158 2 0.844626 0.675474 0.628206
159 2 0.84409 0.683287 0.574366
160 1 0.804858 0.0606195 0.262299
161 2 0.809703 0.03164 0.25906
162 2 0.800174 0.0614088 0.29174
163 1 0.575341 0.347812 0.191935
164 2 0.571359 0.342527 0.222053
165 2 0.568331 0.34341 0.168571
166 1 0.329843 0.358301 0.57683
167 2 0.328142 0.348079 0.608046
168 2 0.331896 0.33196 0.557584
169 1 0.988539 0.218733 0.0388068
170 2 0.981071 0.209265 0.0187653
171 2 0.995337 0.235644 0.0211501
172 1 0.140423 0.315746 0.63266
173 2 0.142369 0.324783 0.664083
174 2 0.148851 0.30528 0.618087
175 1 0.564287 0.341231 0.273598
176 2 0.557331 0.361143 0.2869
177 2 0.567604 0.320006 0.2968
178 1 0.340061 0.638553 0.389928
179 2 0.337727 0.607611 0.380275
180 2 0.344026 0.655207 0.364254
181 1 0.229182 0.508256 0.680292
182 2 0.239107 0.505336 0.677457
183 2 0.226681 0.509313 0.712549
184 1 0.701118 0.211105 0.494549
185 2 0.701208 0.177822 0.496345
186 2 0.693984 0.220874 0.473333
187 1 0.844001 0.438026 0.192235
188 2 0.839169 0.453651 0.216885
189 2 0.841826 0.405502 0.193091
190 1 0.325617 0.415643 0.348136
191 2 0.31757 0.396459 0.353011
192 2 0.331258 0.415653 0.375659
193 1 0.829433 0.475757 0.254598
194 2 0.833915 0.471998 0.284159
195 2 0.827585 0.508084 0.249294
196 1 0.257344 0.563542 0.807822
197 2 0.260518 0.567798 0.839144
198 2 0.25988 0.53307 0.797283
199 1 0.24626 0.552464 0.612538
200 2 0.248017 0.526748 0.592154
201 2 0.236566 0.560546 0.611227
202 1 0.179456 0.478691 0.730367
203 2 0.173666 0.504545 0.738748
204 2 0.174026 0.4563 0.713571
205 1 0.551265 0.451617 0.23011
206 2 0.55519 0.441142 0.201296
207 2 0.554292 0.482796 0.23621
208 1 0.796572 0.099585 0.347001
209 2 0.803445 0.120759 0.335261
210 2 0.788703 0.116756 0.358329
211 1 0.482441 0.588167 0.78158
212 2 0.47715 0.574753 0.806482
213 2 0.487158 0.564012 0.764831
214 1 0.304201 0.5024 0.130175
215 2 0.308056 0.474242 0.142548
216 2 0.294293 0.502465 0.134691
217 1 0.237773 0.603783 0.765335
218 2 0.242911 0.621479 0.742871
219 2 0.24389 0.594405 0.78998
220 1 0.823058 0.767971 0.591225
221 2 0.814614 0.757031 0.605333
222 2 0.830605 0.747702 0.599445
223 1 0.190504 0.366011 0.586912
224 2 0.189721 0.399203 0.588514
225 2 0.200159 0.357356 0.587445
226 1 0.328781 0.601731 0.95901
227 2 0.334386 0.615943 0.935342
228 2 0.326177 0.571027 0.949368
229 1 0.882045 0.735144 0.641609
230 2 0.874884 0.743308 0.663399
231 2 0.88348 0.760401 0.620388
232 1 0.475605 0.704788 0.909254
233 2 0.475224 0.726511 0.884004
234 2 0.473888 0.720756 0.937948
235 1 0.32491 0.465135 0.268761
236 2 0.327485 0.452311 0.298306
237 2 0.333113 0.475581 0.252815
238 1 0.162017 0.28812 0.583758
239 2 0.157097 0.293331 0.555209
240 2 0.171785 0.284843 0.577427
241 1 0.995752 0.104802 0.13826
242 2 0.993712 0.0740362 0.149139
243 2 0.987316 0.12267 0.137176
244 1 0.205503 0.4809 0.772126
245 2 0.209878 0.510858 0.771124
246 2 0.195894 0.483838 0.763385
247 1 0.367917 0.729039 0.142496
248 2 0.370604 0.704542 0.16325
249 2 0.376098 0.742999 0.129358
250 1 0.862704 0.499807 0.330396
251 2 0.865349 0.531949 0.329846
252 2 0.86646 0.484393 0.303623
253 1 0.247478 0.480621 0.551396
254 2 0.243332 0.456349 0.569588
255 2 0.25522 0.468332 0.534248
256 1 0.473672 0.53943 0.857647
257 2 0.474783 0.567394 0.875406
258 2 0.473365 0.513241 0.878244
259 1 0.281728 0.251651 0.707924
260 2 0.273027 0.25261 0.691522
261 2 0.28357 0.22042 0.717824
262 1 0.0800019 0.0693547 0.342612
263 2 0.0773162 0.0961682 0.360276
264 2 0.0897184 0.0631529 0.347474
265 1 0.809395 0.144248 0.278116
266 2 0.81128 0.161946 0.250577
267 2 0.80742 0.112657 0.26976
268 1 0.609069 0.41447 0.309794
269 2 0.611729 0.428164 0.338862
270 2 0.616047 0.421068 0.286849
271 1 0.858356 0.813199 0.599568
272 2 0.861999 0.84401 0.603353
273 2 0.850748 0.813832 0.577944
274 1 0.87491 0.581983 0.329272
275 2 0.882018 0.588989 0.351647
276 2 0.878963 0.580664 0.298827
277 1 0.870021 0.459431 0.251097
278 2 0.864607 0.458091 0.223104
279 2 0.878263 0.440899 0.247503
280 1 0.351323 0.663608 0.471387
281 2 0.357009 0.638242 0.481799
282 2 0.34786 0.657035 0.440814
283 1 0.286786 0.425496 0.575932
284 2 0.295261 0.442791 0.572195
285 2 0.282556 0.433411 0.60508
286 1 0.0255652 0.0807409 0.995483
287 2 0.021677 0.0723267 0.0250183
288 2 0.022169 0.0599185 0.972044
289 1 0.320861 0.546577 0.187636
290 2 0.322843 0.578963 0.183319
291 2 0.314006 0.536841 0.165406
292 1 0.162361 0.307027 0.687972
293 2 0.169924 0.302255 0.666694
294 2 0.165753 0.304882 0.719255
295 1 0.233816 0.440755 0.615229
296 2 0.234086 0.463443 0.639633
297 2 0.224504 0.438507 0.603287
298 1 0.312567 0.43772 0.191578
299 2 0.304449 0.42285 0.204137
300 2 0.31794 0.450972 0.216372
ITEM: TIMESTEP
7800
ITEM: NUMBER OF ATOMS
300
ITEM: BOX BOUNDS pp ff pp
0.0000000000000000e+00 1.0000000000000000e+02
0.0000000000000000e+00 3.0000000000000000e+01
0.0000000000000000e+00 3.0000000000000000e+01
ITEM: ATOMS id type xs ys zs
1 1 0.3655 0.790339 0.221355
2 2 0.360525 0.796383 0.249631
3 2 0.359856 0.771567 0.201236
4 1 0.625999 0.429849 0.242389
5 2 0.635443 0.42135 0.235474
6 2 0.620404 0.426668 0.214946
7 1 0.0131303 0.24808 0.984127
8 2 0.017916 0.219396 0.98995
9 2 0.0172095 0.272296 0.00256076
10 1 0.551017 0.407965 0.286729
11 2 0.550209 0.439686 0.296613
12 2 0.546463 0.404174 0.257295
13 1 0.878986 0.571105 0.253112
14 2 0.876631 0.539527 0.245877
15 2 0.873944 0.591634 0.232931
16 1 0.279505 0.435023 0.717155
17 2 0.286223 0.429026 0.741106
18 2 0.277051 0.406393 0.702169
19 1 0.320555 0.32905 0.672564
20 2 0.321326 0.347833 0.699981
21 2 0.311705 0.313533 0.672451
22 1 0.168114 0.362609 0.619646
23 2 0.176289 0.364427 0.600534
24 2 0.16205 0.33883 0.60794
25 1 0.34756 0.728867 0.353552
26 2 0.345525 0.740602 0.384005
27 2 0.356762 0.738335 0.344575
28 1 0.583265 0.463975 0.268788
29 2 0.581457 0.447659 0.240353
30 2 0.581683 0.443588 0.294628
31 1 0.574173 0.412868 0.332194
32 2 0.566464 0.396213 0.319031
33 2 0.581954 0.392239 0.335797
34 1 0.166939 0.435676 0.678172
35 2 0.164456 0.454775 0.652137
36 2 0.166333 0.403559 0.669479
37 1 0.283542 0.34468 0.680602
38 2 0.276695 0.345219 0.656313
39 2 0.284678 0.31344 0.691595
40 1 0.327877 0.418209 0.448604
41 2 0.329943 0.425868 0.480306
42 2 0.318229 0.409862 0.445925
43 1 0.135621 0.290795 0.525138
44 2 0.132255 0.290682 0.556527
45 2 0.128048 0.297228 0.504341
46 1 0.566873 0.535604 0.275664
47 2 0.572636 0.558064 0.291078
48 2 0.571186 0.505584 0.277466
49 1 0.578684 0.413029 0.189465
50 2 0.571032 0.433735 0.183828
51 2 0.575199 0.383942 0.200873
52 1 0.84664 0.827818 0.53289
53 2 0.840016 0.8039 0.54007
54 2 0.842139 0.8519 0.515395
55 1 0.715911 0.624673 0.00876673
56 2 0.722217 0.622758 0.0345667
57 2 0.706642 0.630189 0.0199936
58 1 0.260609 0.558854 0.665888
59 2 0.262918 0.589898 0.675276
60 2 0.25427 0.559952 0.640131
61 1 0.209097 0.401679 0.695901
62 2 0.204041 0.379311 0.713979
63 2 0.209731 0.43032 0.712821
64 1 0.299326 0.394789 0.453773
65 2 0.293755 0.367109 0.453464
66 2 0.297148 0.412735 0.480909
67 1 0.335241 0.557702 0.319593
68 2 0.339927 0.533213 0.335943
69 2 0.326893 0.545764 0.30565
70 1 0.858113 0.553574 0.155693
71 2 0.856947 0.523097 0.142765
72 2 0.849337 0.564518 0.167339
73 1 1.00009 0.122248 0.035788
74 2 0.996458 0.112213 0.0651854
75 2 0.995275 0.149781 0.0259938
76 1 0.884918 0.615204 0.644315
77 2 0.888955 0.599251 0.618323
78 2 0.889638 0.644233 0.648891
79 1 0.21672 0.352566 0.619026
80 2 0.224316 0.370325 0.606589
81 2 0.213351 0.367175 0.646804
82 1 0.594735 0.348038 0.342033
83 2 0.59883 0.378446 0.341687
84 2 0.600338 0.327268 0.323842
85 1 0.280875 0.490547 0.642598
86 2 0.281129 0.471695 0.670075
87 2 0.273593 0.513217 0.645422
88 1 0.477687 0.608879 0.885706
89 2 0.483811 0.619507 0.861593
90 2 0.476112 0.633552 0.907495
91 1 0.31058 0.512966 0.28433
92 2 0.313865 0.525676 0.255526
93 2 0.303152 0.491484 0.278295
94 1 0.480939 0.733903 0.863599
95 2 0.480419 0.715844 0.835634
96 2 0.484332 0.764429 0.856428
97 1 0.573793 0.285311 0.35618
98 2 0.581852 0.304897 0.353776
99 2 0.574028 0.268887 0.385176
100 1 0.187333 0.323496 0.677914
101 2 0.192004 0.312553 0.650548
102 2 0.179301 0.341291 0.669098
103 1 0.308925 0.464948 0.613647
104 2 0.315251 0.453691 0.636878
105 2 0.301402 0.481247 0.628367
106 1 0.274628 0.339866 0.592743
107 2 0.27742 0.368963 0.579408
108 2 0.280233 0.315348 0.580056
109 1 0.204585 0.491197 0.623253
110 2 0.207429 0.523148 0.622645
111 2 0.198501 0.486118 0.649216
112 1 0.314139 0.475684 0.027489
113 2 0.317427 0.505331 0.0380755
114 2 0.311925 0.456539 0.0537591
115 1 0.482232 0.678543 0.779571
116 2 0.4791 0.688505 0.749524
117 2 0.482145 0.645239 0.780956
118 1 0.323185 0.562444 0.0464152
119 2 0.329545 0.572479 0.0701001
120 2 0.325349 0.577899 0.0177755
121 1 0.0221918 0.16692 0.00597039
122 2 0.0297307 0.145122 0.00808169
123 2 0.013485 0.150574 0.00723211
124 1 0.122248 0.293792 0.600574
125 2 0.115483 0.273833 0.614863
126 2 0.131128 0.28942 0.615265
127 1 0.860332 0.647433 0.654436
128 2 0.868741 0.629759 0.650825
129 2 0.857814 0.648486 0.686678
130 1 0.610451 0.424918 0.170584
131 2 0.611172 0.429985 0.137726
132 2 0.600819 0.425163 0.179545
133 1 0.223085 0.579082 0.734386
134 2 0.232583 0.587605 0.740405
135 2 0.216985 0.598606 0.752175
136 1 0.261969 0.497298 0.744535
137 2 0.267349 0.470871 0.73499
138 2 0.260714 0.517835 0.718614
139 1 0.38522 0.796291 0.139903
140 2 0.378601 0.810335 0.160568
141 2 0.393626 0.789393 0.156586
142 1 0.326182 0.501664 0.946052
143 2 0.321386 0.487713 0.920344
144 2 0.323712 0.485799 0.974188
145 1 0.25747 0.288777 0.647178
146 2 0.248389 0.292234 0.660703
147 2 0.258962 0.312933 0.624754
148 1 0.328719 0.443966 0.532568
149 2 0.324603 0.474301 0.534206
150 2 0.329071 0.430641 0.5631
151 1 0.839782 0.455254 0.341251
152 2 0.83631 0.443665 0.370283
153 2 0.845445 0.482168 0.346763
154 1 0.342427 0.755711 0.438526
155 2 0.336231 0.770863 0.459857
156 2 0.342661 0.723046 0.445122
157 1 0.845461 0.696762 0.599053
158 2 0.848527 0.672944 0.620014
159 2 0.852933 0.704844 0.578425
160 1 0.801198 0.0593097 0.268469
161 2 0.804206 0.0330744 0.250515
162 2 0.803818 0.0549514 0.300342
163 1 0.570681 0.330673 0.224694
164 2 0.565971 0.32134 0.252578
165 2 0.569166 0.307849 0.200931
166 1 0.331352 0.391988 0.607785
167 2 0.326486 0.365185 0.619171
168 2 0.341029 0.389724 0.615875
169 1 0.990355 0.200149 0.0104776
170 2 0.997043 0.217432 0.99272
171 2 0.981192 0.205588 -0.0017184
172 1 0.146631 0.283371 0.644557
173 2 0.150705 0.287054 0.674775
174 2 0.153583 0.272497 0.62321
175 1 0.555636 0.299603 0.293335
176 2 0.552792 0.329464 0.304716
177 2 0.560874 0.28376 0.3169
178 1 0.345249 0.631006 0.36666
179 2 0.342546 0.60799 0.344294
180 2 0.341543 0.66064 0.357698
181 1 0.214501 0.576602 0.633904
182 2 0.222804 0.566756 0.618146
183 2 0.216228 0.577882 0.666712
184 1 0.688685 0.179046 0.513423
185 2 0.686417 0.147425 0.520775
186 2 0.684041 0.187915 0.485267
187 1 0.847333 0.469158 0.192417
188 2 0.839841 0.473658 0.214031
189 2 0.843624 0.459466 0.163017
190 1 0.328028 0.449346 0.355658
191 2 0.320312 0.470218 0.35193
192 2 0.329443 0.443208 0.38808
193 1 0.828087 0.473266 0.261305
194 2 0.832645 0.459084 0.287367
195 2 0.822223 0.498066 0.271982
196 1 0.255535 0.540086 0.818831
197 2 0.258262 0.521526 0.844984
198 2 0.256244 0.52194 0.79097
199 1 0.246626 0.574222 0.591378
200 2 0.247589 0.552446 0.566346
201 2 0.240133 0.598035 0.582681
202 1 0.185167 0.479416 0.734505
203 2 0.176603 0.493892 0.743818
204 2 0.183374 0.458058 0.709621
205 1 0.556137 0.479844 0.207086
206 2 0.553626 0.500734 0.182496
207 2 0.560515 0.496938 0.231701
208 1 0.805795 0.0980574 0.354971
209 2 0.802466 0.123802 0.336937
210 2 0.806486 0.107084 0.386976
211 1 0.480988 0.588899 0.769427
212 2 0.47336 0.573585 0.784594
213 2 0.488121 0.566625 0.762376
214 1 0.306998 0.494504 0.13365
215 2 0.307148 0.474592 0.160378
216 2 0.303471 0.524462 0.142331
217 1 0.248714 0.603869 0.752864
218 2 0.256519 0.624236 0.757272
219 2 0.249431 0.578089 0.773859
220 1 0.828368 0.770493 0.555825
221 2 0.819767 0.760469 0.542088
222 2 0.831007 0.749227 0.579939
223 1 0.195037 0.374953 0.576361
224 2 0.199011 0.404739 0.569402
225 2 0.202266 0.35407 0.586069
226 1 0.337509 0.58443 0.977821
227 2 0.346319 0.592816 0.964463
228 2 0.334567 0.555039 0.965531
229 1 0.878638 0.719779 0.642342
230 2 0.871426 0.696802 0.640056
231 2 0.875115 0.749213 0.632004
232 1 0.476661 0.685919 0.930469
233 2 0.478577 0.705209 0.904045
234 2 0.471206 0.70301 0.952567
235 1 0.324497 0.41388 0.266267
236 2 0.325371 0.426339 0.297047
237 2 0.333595 0.408062 0.253718
238 1 0.161019 0.255938 0.562411
239 2 0.154433 0.264653 0.53889
240 2 0.170267 0.256975 0.549771
241 1 0.995585 0.0980511 0.119597
242 2 0.9909 0.0759128 0.139018
243 2 0.00530849 0.0987163 0.127348
244 1 0.21305 0.489559 0.727943
245 2 0.216229 0.519441 0.738235
246 2 0.203113 0.487776 0.731238
247 1 0.362771 0.745827 0.125756
248 2 0.360894 0.73174 0.0962002
249 2 0.370835 0.76538 0.123279
250 1 0.859427 0.520774 0.336446
251 2 0.865333 0.543855 0.350261
252 2 0.861652 0.517771 0.304087
253 1 0.249855 0.487157 0.547449
254 2 0.241245 0.476284 0.56045
255 2 0.255789 0.461144 0.540876
256 1 0.465274 0.545651 0.831894
257 2 0.466382 0.57017 0.854171
258 2 0.460201 0.520493 0.845763
259 1 0.280967 0.244109 0.676666
260 2 0.272146 0.256507 0.667029
261 2 0.281454 0.211811 0.668585
262 1 0.0927758 0.0910126 0.329051
263 2 0.0872838 0.0662465 0.341803
264 2 0.094749 0.0846055 0.297008
265 1 0.800436 0.149257 0.276663
266 2 0.795278 0.163101 0.251684
267 2 0.80256 0.117584 0.269061
268 1 0.606796 0.427998 0.319283
269 2 0.601663 0.456555 0.317578
270 2 0.613872 0.427755 0.29573
271 1 0.858378 0.834961 0.617979
272 2 0.850343 0.822374 0.633319
273 2 0.856387 0.839006 0.585565
274 1 0.880374 0.588206 0.343185
275 2 0.88679 0.613047 0.349238
276 2 0.880699 0.580246 0.310835
277 1 0.870354 0.479793 0.242403
278 2 0.862204 0.483271 0.223406
279 2 0.873419 0.448076 0.241481
280 1 0.345831 0.666171 0.445336
281 2 0.343982 0.642021 0.46747
282 2 0.347827 0.652585 0.415633
283 1 0.290247 0.416992 0.554581
284 2 0.298628 0.424454 0.57116
285 2 0.283813 0.442401 0.556946
286 1 0.0211262 0.0744221 0.0198745
287 2 0.0121151 0.0888091 0.0212518
288 2 0.0236265 0.0631845 0.0501295
289 1 0.321286 0.542464 0.209954
290 2 0.32558 0.566569 0.191921
291 2 0.3211 0.514225 0.192252
292 1 0.165136 0.300054 0.720568
293 2 0.174006 0.294328 0.706283
294 2 0.166187 0.322903 0.744584
295 1 0.228833 0.466983 0.599589
296 2 0.234329 0.470455 0.627217
297 2 0.219539 0.47785 0.605363
298 1 0.30467 0.442573 0.205745
299 2 0.296319 0.439429 0.223815
300 2 0.312442 0.430802 0.223106
ITEM: TIMESTEP
7900
ITEM: NUMBER OF ATOMS
300
ITEM: BOX BOUNDS pp ff pp
0.0000000000000000e+00 1.0000000000000000e+02
0.0000000000000000e+00 3.0000000000000000e+01
0.0000000000000000e+00 3.0000000000000000e+01
ITEM: ATOMS id type xs ys zs
1 1 0.358232 0.742364 0.230935
2 2 0.355822 0.712103 0.242377
3 2 0.35439 0.746469 0.200434
4 1 0.625162 0.401355 0.242266
5 2 0.631764 0.386304 0.222258
6 2 0.618853 0.419591 0.223927
7 1 0.0132503 0.228844 0.977365
8 2 0.0172295 0.199463 0.985849
9 2 0.020371 0.252246 0.977647
10 1 0.554006 0.395459 0.252575
11 2 0.555448 0.422017 0.233013
12 2 0.556256 0.367717 0.235685
13 1 0.879062 0.594982 0.247077
14 2 0.877802 0.562103 0.243552
15 2 0.872146 0.611109 0.229201
16 1 0.289134 0.427018 0.718491
17 2 0.298541 0.427703 0.729777
18 2 0.287349 0.397595 0.703998
19 1 0.312763 0.339404 0.639251
20 2 0.313293 0.327905 0.608014
21 2 0.303466 0.34999 0.645459
22 1 0.176683 0.353703 0.638037
23 2 0.1825 0.376964 0.624107
24 2 0.175617 0.328123 0.616963
25 1 0.347227 0.715629 0.336138
26 2 0.340459 0.725633 0.358543
27 2 0.355576 0.733652 0.339584
28 1 0.587048 0.463323 0.262717
29 2 0.582616 0.442546 0.241243
30 2 0.587686 0.448736 0.292614
31 1 0.569039 0.417391 0.325932
32 2 0.561874 0.406206 0.305546
33 2 0.571369 0.393663 0.348018
34 1 0.167664 0.436091 0.675499
35 2 0.16194 0.446141 0.650081
36 2 0.169971 0.403897 0.671567
37 1 0.284038 0.351005 0.667604
38 2 0.279208 0.361355 0.640313
39 2 0.281949 0.318873 0.673097
40 1 0.316474 0.475095 0.430018
41 2 0.318967 0.477628 0.462199
42 2 0.310967 0.447655 0.425412
43 1 0.134613 0.274402 0.531358
44 2 0.128709 0.274901 0.558256
45 2 0.129237 0.265683 0.504639
46 1 0.564747 0.51996 0.272939
47 2 0.560377 0.5144 0.302402
48 2 0.574682 0.518623 0.276489
49 1 0.578663 0.404141 0.184679
50 2 0.572963 0.424818 0.166719
51 2 0.574041 0.374741 0.18775
52 1 0.853986 0.822305 0.551083
53 2 0.847347 0.798979 0.542289
54 2 0.854811 0.844791 0.52663
55 1 0.723623 0.625277 0.0145194
56 2 0.716438 0.604442 0.0246862
57 2 0.723896 0.625749 0.981202
58 1 0.262037 0.548264 0.666769
59 2 0.257337 0.561138 0.693224
60 2 0.256509 0.553233 0.639439
61 1 0.220196 0.417192 0.695081
62 2 0.214332 0.409606 0.720993
63 2 0.220005 0.450122 0.68995
64 1 0.297254 0.409806 0.443342
65 2 0.290914 0.388777 0.428433
66 2 0.293283 0.420366 0.472053
67 1 0.342523 0.558273 0.299974
68 2 0.341515 0.526947 0.31086
69 2 0.341124 0.559129 0.26698
70 1 0.859473 0.588157 0.171847
71 2 0.855629 0.559526 0.183126
72 2 0.866827 0.581607 0.150228
73 1 0.00224121 0.124109 0.0275058
74 2 0.998047 0.11229 0.0553627
75 2 0.996629 0.148865 0.0153275
76 1 0.883314 0.640326 0.659976
77 2 0.891484 0.621839 0.654711
78 2 0.885485 0.672466 0.654902
79 1 0.214909 0.35776 0.627941
80 2 0.221319 0.362169 0.602741
81 2 0.217499 0.377462 0.653405
82 1 0.597873 0.342033 0.36539
83 2 0.599894 0.362469 0.339933
84 2 0.605323 0.343372 0.387586
85 1 0.287997 0.508427 0.658598
86 2 0.29034 0.500503 0.69002
87 2 0.278689 0.520569 0.657584
88 1 0.473438 0.588661 0.890062
89 2 0.481632 0.570482 0.895955
90 2 0.472977 0.613803 0.911893
91 1 0.31427 0.488247 0.269021
92 2 0.3176 0.511809 0.248219
93 2 0.307402 0.469628 0.253517
94 1 0.48636 0.703917 0.871215
95 2 0.480401 0.69344 0.84658
96 2 0.493688 0.722733 0.858552
97 1 0.5705 0.320716 0.380536
98 2 0.580273 0.327494 0.378554
99 2 0.568684 0.303282 0.408295
100 1 0.190695 0.349382 0.728034
101 2 0.19496 0.31979 0.722256
102 2 0.184987 0.357839 0.702005
103 1 0.303011 0.432882 0.609126
104 2 0.310675 0.418788 0.625242
105 2 0.297306 0.449533 0.630857
106 1 0.274695 0.366206 0.579612
107 2 0.273476 0.395414 0.564071
108 2 0.281955 0.348897 0.564584
109 1 0.207371 0.502664 0.587505
110 2 0.212117 0.531021 0.579975
111 2 0.204705 0.503092 0.619629
112 1 0.31555 0.472221 0.0429004
113 2 0.322305 0.496802 0.0428186
114 2 0.317978 0.44982 0.06622
115 1 0.473345 0.678516 0.801088
116 2 0.465192 0.694367 0.790075
117 2 0.475181 0.652139 0.781648
118 1 0.335366 0.535798 0.0521414
119 2 0.33916 0.560017 0.0712359
120 2 0.338881 0.538874 0.0210861
121 1 0.0251979 0.153515 0.00660212
122 2 0.0321337 0.129675 0.00947188
123 2 0.0162107 0.140885 0.0139597
124 1 0.122459 0.272177 0.620976
125 2 0.114772 0.260137 0.638572
126 2 0.131051 0.262274 0.634858
127 1 0.856845 0.644229 0.647684
128 2 0.86637 0.634348 0.650018
129 2 0.850802 0.618733 0.655115
130 1 0.603118 0.451438 0.195323
131 2 0.597946 0.465991 0.21986
132 2 0.597874 0.425796 0.183156
133 1 0.221884 0.604624 0.706887
134 2 0.231365 0.604831 0.717489
135 2 0.215754 0.609511 0.732766
136 1 0.266338 0.476928 0.743684
137 2 0.274252 0.456682 0.745973
138 2 0.263783 0.480506 0.711656
139 1 0.381042 0.800496 0.174481
140 2 0.384827 0.775882 0.193086
141 2 0.375806 0.821249 0.193865
142 1 0.315321 0.484611 0.949256
143 2 0.308758 0.467434 0.930887
144 2 0.312618 0.483353 0.981324
145 1 0.258583 0.296867 0.617063
146 2 0.248819 0.29602 0.609911
147 2 0.262709 0.323811 0.603065
148 1 0.32588 0.475697 0.554121
149 2 0.322078 0.457299 0.57886
150 2 0.322254 0.506704 0.556019
151 1 0.836674 0.45032 0.339424
152 2 0.835498 0.451543 0.372504
153 2 0.845557 0.463267 0.331258
154 1 0.343299 0.754878 0.456706
155 2 0.347845 0.759203 0.486079
156 2 0.34215 0.722284 0.450872
157 1 0.851716 0.713994 0.58526
158 2 0.852332 0.685664 0.602704
159 2 0.858415 0.735842 0.596882
160 1 0.798506 0.0664401 0.271959
161 2 0.796474 0.0350256 0.263109
162 2 0.804656 0.0664026 0.298244
163 1 0.569277 0.317902 0.222749
164 2 0.564569 0.302233 0.247635
165 2 0.577492 0.300833 0.214388
166 1 0.325807 0.412974 0.662474
167 2 0.323574 0.380786 0.658037
168 2 0.334253 0.420219 0.646163
169 1 0.987038 0.198571 0.988537
170 2 0.995888 0.213488 0.992833
171 2 0.980768 0.2195 0.973165
172 1 0.148748 0.243336 0.661113
173 2 0.151482 0.25884 0.689179
174 2 0.154091 0.255228 0.635567
175 1 0.554861 0.303103 0.298924
176 2 0.548029 0.327413 0.297664
177 2 0.559956 0.305259 0.327526
178 1 0.347022 0.624875 0.36073
179 2 0.3456 0.603942 0.335225
180 2 0.347858 0.656016 0.349174
181 1 0.217351 0.59106 0.609749
182 2 0.225716 0.57659 0.598597
183 2 0.218898 0.602904 0.640477
184 1 0.676795 0.148573 0.531618
185 2 0.678126 0.117817 0.543679
186 2 0.673459 0.146708 0.500249
187 1 0.847435 0.488843 0.191637
188 2 0.839286 0.495538 0.20976
189 2 0.848275 0.455876 0.187582
190 1 0.329581 0.471531 0.338192
191 2 0.323404 0.486045 0.316362
192 2 0.325764 0.47414 0.368891
193 1 0.825354 0.466141 0.251686
194 2 0.827712 0.454057 0.281741
195 2 0.815554 0.462221 0.246329
196 1 0.24756 0.528733 0.789296
197 2 0.248259 0.517816 0.820704
198 2 0.253728 0.511117 0.769854
199 1 0.246806 0.585737 0.597358
200 2 0.249412 0.564574 0.573114
201 2 0.246761 0.616857 0.585415
202 1 0.189542 0.478252 0.714221
203 2 0.18452 0.481846 0.742821
204 2 0.183953 0.461137 0.692517
205 1 0.557621 0.475555 0.204251
206 2 0.550616 0.493937 0.189149
207 2 0.560173 0.489918 0.233102
208 1 0.8114 0.102175 0.347582
209 2 0.804417 0.123376 0.336636
210 2 0.820382 0.116745 0.345974
211 1 0.478249 0.593812 0.753783
212 2 0.47112 0.585237 0.775531
213 2 0.483825 0.56711 0.746536
214 1 0.312374 0.461879 0.158917
215 2 0.309766 0.443991 0.185667
216 2 0.304703 0.481154 0.149652
217 1 0.247671 0.602537 0.739694
218 2 0.249305 0.629051 0.759149
219 2 0.246654 0.575342 0.758668
220 1 0.833521 0.761229 0.52393
221 2 0.825161 0.747642 0.511683
222 2 0.836746 0.743137 0.54978
223 1 0.193397 0.416129 0.604337
224 2 0.194721 0.448989 0.600887
225 2 0.202298 0.401124 0.606708
226 1 0.340952 0.54492 0.956653
227 2 0.347893 0.555822 0.935274
228 2 0.334591 0.524723 0.940729
229 1 0.872164 0.731152 0.644335
230 2 0.865108 0.71005 0.654953
231 2 0.868658 0.762345 0.645565
232 1 0.475008 0.661537 0.948328
233 2 0.480169 0.678058 0.925041
234 2 0.469492 0.683065 0.965924
235 1 0.319554 0.38429 0.291545
236 2 0.323139 0.411099 0.307344
237 2 0.327121 0.367213 0.278007
238 1 0.159975 0.275417 0.582415
239 2 0.155257 0.254944 0.561327
240 2 0.156798 0.306648 0.577552
241 1 0.988326 0.0984739 0.105366
242 2 0.982148 0.0820359 0.125781
243 2 0.987553 0.131227 0.110997
244 1 0.213722 0.50638 0.690368
245 2 0.215955 0.537561 0.699505
246 2 0.204493 0.49881 0.700734
247 1 0.355948 0.766164 0.142904
248 2 0.353854 0.78092 0.113841
249 2 0.363317 0.782742 0.158164
250 1 0.863026 0.51131 0.330805
251 2 0.867208 0.538476 0.344176
252 2 0.865525 0.509255 0.298595
253 1 0.250621 0.4901 0.5577
254 2 0.244981 0.468952 0.57532
255 2 0.249518 0.483782 0.525178
256 1 0.460353 0.568227 0.812149
257 2 0.46486 0.585227 0.836571
258 2 0.453366 0.548269 0.825202
259 1 0.278265 0.261529 0.659029
260 2 0.269841 0.270465 0.643446
261 2 0.277231 0.230751 0.671354
262 1 0.104672 0.103134 0.31483
263 2 0.10901 0.0752249 0.303739
264 2 0.102362 0.122696 0.288961
265 1 0.796475 0.15449 0.300527
266 2 0.797494 0.179445 0.278692
267 2 0.794593 0.126155 0.284129
268 1 0.611281 0.411363 0.320063
269 2 0.613551 0.441228 0.33279
270 2 0.616841 0.405836 0.292915
271 1 0.865961 0.81196 0.636118
272 2 0.874305 0.830263 0.637675
273 2 0.861246 0.818058 0.607363
274 1 0.880957 0.586582 0.335669
275 2 0.88703 0.608084 0.351129
276 2 0.880336 0.594534 0.303364
277 1 0.870683 0.50517 0.240429
278 2 0.861977 0.494403 0.228057
279 2 0.878223 0.491046 0.223699
280 1 0.338101 0.668516 0.438085
281 2 0.331242 0.652007 0.455858
282 2 0.341112 0.649572 0.412561
283 1 0.28821 0.43609 0.530809
284 2 0.294046 0.438554 0.557765
285 2 0.283165 0.464563 0.526602
286 1 0.0231656 0.0583306 0.0300684
287 2 0.0154105 0.0750125 0.0172393
288 2 0.020197 0.0278502 0.0392409
289 1 0.32959 0.538942 0.205935
290 2 0.323471 0.56381 0.197175
291 2 0.32823 0.513094 0.185382
292 1 0.160188 0.294423 0.725959
293 2 0.163426 0.319654 0.707038
294 2 0.157861 0.305822 0.756307
295 1 0.229891 0.448231 0.604656
296 2 0.234153 0.4602 0.632335
297 2 0.222409 0.468314 0.595391
298 1 0.302524 0.416431 0.23057
299 2 0.292879 0.407636 0.230271
300 2 0.306909 0.404175 0.257905
ITEM: TIMESTEP
8000
ITEM: NUMBER OF ATOMS
300
ITEM: BOX BOUNDS pp ff pp
0.0000000000000000e+00 1.0000000000000000e+02
0.0000000000000000e+00 3.0000000000000000e+01
0.0000000000000000e+00 3.0000000000000000e+01
ITEM: ATOMS id type xs ys zs
1 1 0.356543 0.70942 0.212448
2 2 0.357973 0.67643 0.212425
3 2 0.356793 0.720788 0.181125
4 1 0.621495 0.380419 0.241461
5 2 0.628021 0.359617 0.227142
6 2 0.618911 0.404177 0.219724
7 1 0.0160346 0.22702 0.964777
8 2 0.019106 0.199313 0.980223
9 2 0.0234149 0.238792 0.945611
10 1 0.549893 0.386814 0.249274
11 2 0.547867 0.413127 0.229958
12 2 0.552537 0.360968 0.230157
13 1 0.877297 0.59097 0.25019
14 2 0.877481 0.558064 0.244902
15 2 0.886578 0.601834 0.256198
16 1 0.283962 0.405927 0.720077
17 2 0.292691 0.396357 0.733228
18 2 0.282771 0.391575 0.690254
19 1 0.314895 0.353655 0.629574
20 2 0.317381 0.345459 0.598345
21 2 0.304961 0.356737 0.631836
22 1 0.179585 0.348738 0.644685
23 2 0.182963 0.376337 0.629767
24 2 0.172974 0.333564 0.624803
25 1 0.350763 0.707852 0.299645
26 2 0.346034 0.730259 0.318634
27 2 0.350192 0.717081 0.267671
28 1 0.582948 0.467982 0.276949
29 2 0.584602 0.443302 0.255232
30 2 0.575832 0.458752 0.298472
31 1 0.559699 0.435265 0.322044
32 2 0.555058 0.418863 0.297492
33 2 0.562749 0.413567 0.345218
34 1 0.165258 0.439926 0.688274
35 2 0.168746 0.43191 0.65808
36 2 0.157997 0.418675 0.696861
37 1 0.287884 0.354917 0.638421
38 2 0.284212 0.372364 0.612791
39 2 0.2857 0.322641 0.634376
40 1 0.318817 0.510621 0.417168
41 2 0.323796 0.524954 0.442274
42 2 0.311865 0.49006 0.429473
43 1 0.137553 0.260457 0.561711
44 2 0.133385 0.24116 0.585072
45 2 0.132282 0.258124 0.533481
46 1 0.559184 0.51845 0.260707
47 2 0.556735 0.493287 0.280987
48 2 0.569094 0.518879 0.256274
49 1 0.587441 0.399619 0.211812
50 2 0.579754 0.384121 0.197169
51 2 0.594786 0.377713 0.217448
52 1 0.857713 0.837818 0.560364
53 2 0.850469 0.815127 0.556719
54 2 0.860372 0.849515 0.530436
55 1 0.729929 0.623862 0.0170663
56 2 0.727999 0.626129 0.984438
57 2 0.739389 0.614016 0.0215167
58 1 0.260865 0.525303 0.677737
59 2 0.255259 0.517015 0.704067
60 2 0.255707 0.545892 0.657949
61 1 0.22827 0.454401 0.680568
62 2 0.231647 0.465479 0.709922
63 2 0.219821 0.470407 0.67271
64 1 0.296596 0.456783 0.445735
65 2 0.287783 0.45504 0.430086
66 2 0.29519 0.453464 0.47857
67 1 0.342174 0.550982 0.305032
68 2 0.336244 0.528008 0.318908
69 2 0.346754 0.537907 0.278441
70 1 0.856626 0.607665 0.193404
71 2 0.86427 0.607409 0.214894
72 2 0.852394 0.577478 0.192539
73 1 0.000171644 0.117145 0.0357495
74 2 0.992391 0.107008 0.0540706
75 2 0.996918 0.136589 0.0109413
76 1 0.877233 0.645814 0.677491
77 2 0.886718 0.635931 0.673778
78 2 0.876722 0.678966 0.674475
79 1 0.215622 0.393924 0.633432
80 2 0.221478 0.380654 0.609897
81 2 0.22111 0.413393 0.653366
82 1 0.600321 0.329555 0.396239
83 2 0.604373 0.340476 0.36779
84 2 0.607507 0.317341 0.415941
85 1 0.284546 0.486846 0.666964
86 2 0.286554 0.46594 0.692049
87 2 0.276369 0.504588 0.674261
88 1 0.466525 0.553017 0.895643
89 2 0.468864 0.526217 0.913867
90 2 0.470887 0.57999 0.908765
91 1 0.305011 0.499551 0.259476
92 2 0.305452 0.492669 0.226894
93 2 0.298967 0.477687 0.274551
94 1 0.491308 0.681103 0.880704
95 2 0.485047 0.679345 0.854773
96 2 0.500355 0.690524 0.870076
97 1 0.570692 0.355645 0.381924
98 2 0.580052 0.366537 0.37756
99 2 0.570881 0.325722 0.396597
100 1 0.188053 0.345574 0.729213
101 2 0.197914 0.351113 0.729282
102 2 0.184716 0.345115 0.697794
103 1 0.306261 0.460441 0.616419
104 2 0.311467 0.435169 0.629509
105 2 0.299174 0.470003 0.637904
106 1 0.270017 0.400473 0.575753
107 2 0.26282 0.423242 0.571604
108 2 0.278438 0.411147 0.561291
109 1 0.209884 0.504334 0.58303
110 2 0.211894 0.534707 0.571039
111 2 0.206329 0.507009 0.61407
112 1 0.319951 0.47513 0.0253957
113 2 0.328168 0.489737 0.0375483
114 2 0.318065 0.447268 0.0425799
115 1 0.469516 0.678412 0.816534
116 2 0.46161 0.661913 0.828547
117 2 0.471304 0.668564 0.785251
118 1 0.342823 0.520401 0.0403052
119 2 0.352567 0.524592 0.0465212
120 2 0.341137 0.524012 0.00764778
121 1 0.0258338 0.147575 0.0105381
122 2 0.0276069 0.117908 0.996538
123 2 0.0171468 0.146514 0.0270149
124 1 0.124304 0.226591 0.634046
125 2 0.125108 0.197256 0.649648
126 2 0.127814 0.250776 0.653776
127 1 0.854842 0.617943 0.632112
128 2 0.863419 0.624304 0.648031
129 2 0.853737 0.584997 0.62863
130 1 0.611994 0.444946 0.186306
131 2 0.613241 0.477423 0.192552
132 2 0.602226 0.437847 0.185595
133 1 0.219879 0.589275 0.686241
134 2 0.229515 0.58698 0.694856
135 2 0.215787 0.615773 0.70117
136 1 0.261642 0.460125 0.759298
137 2 0.271334 0.451918 0.759619
138 2 0.256586 0.438175 0.740717
139 1 0.364982 0.79993 0.224646
140 2 0.358382 0.815493 0.244266
141 2 0.363391 0.767045 0.22591
142 1 0.314218 0.481596 0.937801
143 2 0.308227 0.456636 0.928351
144 2 0.313402 0.486151 0.97071
145 1 0.257791 0.305929 0.605487
146 2 0.248875 0.299391 0.619093
147 2 0.258244 0.33814 0.597047
148 1 0.327211 0.484736 0.537973
149 2 0.319417 0.492126 0.557507
150 2 0.323911 0.475317 0.50795
151 1 0.84126 0.466799 0.316669
152 2 0.838709 0.458236 0.347741
153 2 0.8503 0.48105 0.316925
154 1 0.34541 0.743274 0.451554
155 2 0.354345 0.736393 0.464853
156 2 0.339954 0.715383 0.450003
157 1 0.855914 0.703394 0.581407
158 2 0.855584 0.67465 0.598251
159 2 0.858303 0.728176 0.60223
160 1 0.795497 0.074835 0.277084
161 2 0.796497 0.0480246 0.257559
162 2 0.803675 0.0782922 0.295957
163 1 0.567296 0.32126 0.204791
164 2 0.569118 0.31706 0.237297
165 2 0.566108 0.291507 0.190294
166 1 0.32189 0.411957 0.696219
167 2 0.320949 0.38415 0.678108
168 2 0.331155 0.424024 0.692795
169 1 0.991924 0.173484 0.967969
170 2 1.00026 0.182673 0.952003
171 2 0.985754 0.199601 0.970411
172 1 0.141841 0.276424 0.671628
173 2 0.148341 0.286788 0.69474
174 2 0.143603 0.292366 0.642949
175 1 0.566535 0.319562 0.297333
176 2 0.55866 0.337866 0.288007
177 2 0.568704 0.325955 0.329238
178 1 0.34409 0.629999 0.347776
179 2 0.344245 0.600467 0.332326
180 2 0.349204 0.652264 0.329756
181 1 0.221702 0.590028 0.576164
182 2 0.230561 0.588498 0.59155
183 2 0.216128 0.613922 0.590128
184 1 0.66607 0.114341 0.547619
185 2 0.667379 0.144351 0.561455
186 2 0.672526 0.092695 0.561018
187 1 0.848141 0.519313 0.184998
188 2 0.840755 0.504775 0.202131
189 2 0.844785 0.528268 0.154903
190 1 0.328146 0.472359 0.336311
191 2 0.322002 0.481861 0.311787
192 2 0.323779 0.478014 0.36576
193 1 0.827069 0.470991 0.236558
194 2 0.83238 0.473225 0.264711
195 2 0.820031 0.447562 0.240014
196 1 0.254621 0.548776 0.794283
197 2 0.254357 0.551945 0.827453
198 2 0.257442 0.517802 0.786327
199 1 0.250729 0.563507 0.601533
200 2 0.250407 0.53151 0.592252
201 2 0.257167 0.580004 0.582081
202 1 0.183899 0.476629 0.742916
203 2 0.183104 0.464606 0.773892
204 2 0.175392 0.470958 0.726334
205 1 0.54532 0.460109 0.197327
206 2 0.53636 0.469058 0.185535
207 2 0.549723 0.486444 0.211546
208 1 0.815375 0.0960509 0.337584
209 2 0.809804 0.123628 0.34
210 2 0.824881 0.104482 0.331593
211 1 0.472995 0.622101 0.749346
212 2 0.467808 0.605028 0.772165
213 2 0.478552 0.601008 0.73137
214 1 0.314036 0.450089 0.186227
215 2 0.314061 0.431514 0.213904
216 2 0.314856 0.430291 0.15955
217 1 0.244898 0.60058 0.729098
218 2 0.2507 0.627291 0.72424
219 2 0.249082 0.580784 0.752005
220 1 0.842815 0.769827 0.501382
221 2 0.833426 0.764384 0.511487
222 2 0.847676 0.740774 0.499273
223 1 0.189952 0.422877 0.618018
224 2 0.189782 0.452492 0.602729
225 2 0.199242 0.416382 0.62851
226 1 0.340076 0.527361 0.94979
227 2 0.343816 0.551878 0.930958
228 2 0.332711 0.512036 0.933253
229 1 0.872765 0.738088 0.668535
230 2 0.865079 0.745281 0.68861
231 2 0.876696 0.766353 0.656683
232 1 0.472899 0.633752 0.932684
233 2 0.480948 0.645004 0.91642
234 2 0.469252 0.657939 0.952135
235 1 0.326293 0.383851 0.319045
236 2 0.328147 0.416495 0.321755
237 2 0.334703 0.3679 0.310628
238 1 0.159581 0.302129 0.59277
239 2 0.163221 0.271402 0.59722
240 2 0.150402 0.300206 0.579689
241 1 0.977523 0.10455 0.0979022
242 2 0.973216 0.080165 0.115519
243 2 0.979308 0.130616 0.117809
244 1 0.206054 0.506653 0.673642
245 2 0.209662 0.537494 0.677554
246 2 0.198048 0.502573 0.693192
247 1 0.355518 0.775847 0.138161
248 2 0.356717 0.789831 0.108168
249 2 0.35848 0.797197 0.161779
250 1 0.865865 0.502356 0.315676
251 2 0.867582 0.525711 0.338761
252 2 0.871012 0.509614 0.288035
253 1 0.25677 0.478445 0.532951
254 2 0.250117 0.474046 0.557448
255 2 0.252082 0.489556 0.505684
256 1 0.457257 0.583244 0.818265
257 2 0.461552 0.572013 0.846195
258 2 0.447955 0.571214 0.81606
259 1 0.27947 0.258129 0.627766
260 2 0.271632 0.273512 0.613915
261 2 0.277204 0.226123 0.633208
262 1 0.115686 0.116351 0.296777
263 2 0.124479 0.108593 0.310622
264 2 0.108394 0.112322 0.31923
265 1 0.793906 0.1549 0.325365
266 2 0.785955 0.175107 0.325979
267 2 0.791379 0.125956 0.311138
268 1 0.614113 0.373416 0.327915
269 2 0.618309 0.401276 0.339718
270 2 0.616062 0.370665 0.295336
271 1 0.871928 0.836488 0.636981
272 2 0.881344 0.846495 0.631903
273 2 0.866547 0.841725 0.609377
274 1 0.875232 0.598442 0.348955
275 2 0.870199 0.621344 0.366421
276 2 0.876136 0.608585 0.317346
277 1 0.871845 0.509571 0.230882
278 2 0.863306 0.512477 0.213775
279 2 0.875048 0.478028 0.229409
280 1 0.335671 0.649378 0.430858
281 2 0.327408 0.630689 0.432666
282 2 0.340206 0.644086 0.401625
283 1 0.287242 0.463129 0.534546
284 2 0.293196 0.4691 0.560652
285 2 0.278235 0.476494 0.540129
286 1 0.0237592 0.0490184 0.0181807
287 2 0.0263252 0.0211344 0.0343185
288 2 0.0183473 0.0684549 0.038377
289 1 0.337409 0.496362 0.217678
290 2 0.33505 0.528566 0.214186
291 2 0.329298 0.477662 0.212173
292 1 0.161376 0.296991 0.751511
293 2 0.170906 0.307083 0.751846
294 2 0.159193 0.28224 0.780503
295 1 0.235439 0.458788 0.587332
296 2 0.232986 0.451818 0.618886
297 2 0.227976 0.475607 0.572863
298 1 0.305551 0.391569 0.251506
299 2 0.300539 0.364381 0.241873
300 2 0.310043 0.385648 0.280694
ITEM: TIMESTEP
8100
ITEM: NUMBER OF ATOMS
300
ITEM: BOX BOUNDS pp ff pp
0.0000000000000000e+00 1.0000000000000000e+02
0.0000000000000000e+00 3.0000000000000000e+01
0.0000000000000000e+00 3.0000000000000000e+01
ITEM: ATOMS id type xs ys zs
1 1 0.359901 0.717318 0.187167
2 2 0.369033 0.704988 0.192874
3 2 0.360677 0.745861 0.170146
4 1 0.618418 0.345051 0.24209
5 2 0.619209 0.318881 0.221614
6 2 0.619097 0.373239 0.224442
7 1 0.018304 0.201621 0.952524
8 2 0.0243798 0.193625 0.977762
9 2 0.0237357 0.21278 0.926857
10 1 0.55143 0.392819 0.242399
11 2 0.54475 0.410097 0.224601
12 2 0.558543 0.381061 0.222132
13 1 0.880646 0.594882 0.25258
14 2 0.880833 0.566611 0.234931
15 2 0.871188 0.605142 0.256021
16 1 0.286102 0.410612 0.712592
17 2 0.295743 0.412306 0.72128
18 2 0.283883 0.379435 0.703411
19 1 0.321579 0.342328 0.645665
20 2 0.327258 0.317401 0.634205
21 2 0.312578 0.34105 0.631199
22 1 0.168748 0.387946 0.626998
23 2 0.177539 0.388974 0.611145
24 2 0.163671 0.360906 0.617322
25 1 0.353989 0.695981 0.28136
26 2 0.3451 0.710803 0.285032
27 2 0.356714 0.697091 0.249307
28 1 0.581289 0.476234 0.255812
29 2 0.585784 0.448013 0.246313
30 2 0.57499 0.469771 0.28088
31 1 0.560638 0.44616 0.310139
32 2 0.556812 0.428442 0.284949
33 2 0.556262 0.436989 0.338675
34 1 0.163379 0.412885 0.716432
35 2 0.161086 0.405138 0.684925
36 2 0.154976 0.415751 0.734275
37 1 0.291823 0.340595 0.617854
38 2 0.284994 0.362044 0.606331
39 2 0.289813 0.310036 0.606347
40 1 0.324127 0.507359 0.437366
41 2 0.328787 0.5253 0.460774
42 2 0.314793 0.500696 0.447298
43 1 0.130565 0.241222 0.565699
44 2 0.132665 0.228285 0.595612
45 2 0.120809 0.237577 0.559353
46 1 0.553595 0.506539 0.246073
47 2 0.555343 0.504135 0.278805
48 2 0.562004 0.499927 0.229285
49 1 0.593426 0.395528 0.246665
50 2 0.587146 0.375925 0.229673
51 2 0.600327 0.376741 0.261796
52 1 0.863041 0.856089 0.557873
53 2 0.86174 0.826407 0.543338
54 2 0.86066 0.880268 0.536344
55 1 0.737137 0.622068 0.0159038
56 2 0.745476 0.640339 0.0180551
57 2 0.733652 0.615867 0.0465255
58 1 0.259612 0.513814 0.681805
59 2 0.260081 0.531634 0.709932
60 2 0.250087 0.511389 0.671941
61 1 0.231693 0.491311 0.677987
62 2 0.232885 0.495475 0.71082
63 2 0.221994 0.493896 0.670291
64 1 0.298246 0.487823 0.464593
65 2 0.291759 0.504272 0.44528
66 2 0.293607 0.477431 0.492233
67 1 0.346424 0.546332 0.308348
68 2 0.347063 0.523907 0.332918
69 2 0.342628 0.531828 0.281134
70 1 0.854772 0.613786 0.245242
71 2 0.848939 0.639003 0.235386
72 2 0.855083 0.590562 0.221353
73 1 0.996601 0.107221 0.0324282
74 2 0.987259 0.100709 0.0423843
75 2 0.996362 0.123092 0.00312631
76 1 0.873096 0.663984 0.678887
77 2 0.880472 0.671942 0.699939
78 2 0.866901 0.689944 0.675599
79 1 0.219424 0.407386 0.609084
80 2 0.223064 0.432218 0.59045
81 2 0.222256 0.411636 0.64077
82 1 0.600407 0.313694 0.407172
83 2 0.605338 0.327918 0.381901
84 2 0.606295 0.291128 0.421893
85 1 0.280731 0.471677 0.652856
86 2 0.281717 0.449754 0.67775
87 2 0.272232 0.488794 0.656796
88 1 0.460173 0.536774 0.889635
89 2 0.461557 0.504914 0.898283
90 2 0.466254 0.556207 0.907595
91 1 0.301634 0.506293 0.2714
92 2 0.30937 0.502429 0.250634
93 2 0.293286 0.49525 0.256737
94 1 0.49044 0.6664 0.896779
95 2 0.483917 0.668098 0.871571
96 2 0.498988 0.681239 0.887892
97 1 0.577133 0.367484 0.375684
98 2 0.582959 0.342776 0.386795
99 2 0.578885 0.395063 0.39347
100 1 0.184971 0.332834 0.714403
101 2 0.191643 0.338792 0.690299
102 2 0.178648 0.358558 0.716679
103 1 0.310301 0.476708 0.632806
104 2 0.314854 0.462066 0.658621
105 2 0.3004 0.475894 0.637401
106 1 0.271168 0.396145 0.576353
107 2 0.263384 0.415089 0.58524
108 2 0.277519 0.414201 0.557997
109 1 0.201898 0.526102 0.597029
110 2 0.203414 0.558042 0.58894
111 2 0.19864 0.524192 0.628485
112 1 0.328104 0.437657 0.0170174
113 2 0.335242 0.460512 0.0217724
114 2 0.323821 0.430242 0.0462119
115 1 0.471536 0.668539 0.832922
116 2 0.462718 0.654048 0.839017
117 2 0.473533 0.66687 0.800303
118 1 0.345544 0.51221 0.00657409
119 2 0.353237 0.532455 0.0131943
120 2 0.34542 0.50509 0.974013
121 1 0.0277509 0.147698 0.0248827
122 2 0.0276006 0.11482 0.0194159
123 2 0.020526 0.155738 0.0464806
124 1 0.139328 0.230677 0.652402
125 2 0.145983 0.210589 0.66708
126 2 0.139477 0.260514 0.667256
127 1 0.856488 0.59909 0.620922
128 2 0.862736 0.619099 0.637564
129 2 0.861766 0.5775 0.602607
130 1 0.613902 0.422733 0.204321
131 2 0.615257 0.454456 0.195135
132 2 0.604789 0.419221 0.217584
133 1 0.215152 0.578538 0.71257
134 2 0.225029 0.583231 0.710306
135 2 0.211197 0.601747 0.732535
136 1 0.26064 0.460856 0.770716
137 2 0.255424 0.437766 0.754113
138 2 0.270375 0.453335 0.769497
139 1 0.345028 0.782013 0.24288
140 2 0.352293 0.796905 0.260283
141 2 0.349072 0.760722 0.22106
142 1 0.320933 0.488392 0.942429
143 2 0.314722 0.468684 0.925284
144 2 0.321109 0.4788 0.974347
145 1 0.256065 0.316228 0.569054
146 2 0.246388 0.318992 0.576993
147 2 0.260099 0.346618 0.566464
148 1 0.321819 0.478276 0.540731
149 2 0.320881 0.470057 0.572884
150 2 0.321149 0.45081 0.521975
151 1 0.842368 0.457901 0.31127
152 2 0.840569 0.450546 0.343223
153 2 0.849379 0.481609 0.309522
154 1 0.348016 0.733775 0.455593
155 2 0.340798 0.741572 0.43388
156 2 0.347223 0.701639 0.46404
157 1 0.86089 0.701705 0.578253
158 2 0.855104 0.674611 0.580493
159 2 0.862517 0.714034 0.608744
160 1 0.791943 0.0881113 0.283363
161 2 0.793485 0.0964815 0.251509
162 2 0.800744 0.0844072 0.298749
163 1 0.576302 0.342211 0.211063
164 2 0.572914 0.329628 0.23979
165 2 0.576923 0.31791 0.18834
166 1 0.319257 0.415394 0.705489
167 2 0.320843 0.392393 0.681948
168 2 0.326675 0.414325 0.727817
169 1 0.994149 0.15374 0.948863
170 2 0.00306276 0.168023 0.953795
171 2 0.98826 0.174553 0.931759
172 1 0.144014 0.308101 0.691603
173 2 0.149178 0.315691 0.71912
174 2 0.149432 0.315903 0.664694
175 1 0.568109 0.336576 0.293879
176 2 0.559009 0.346699 0.284473
177 2 0.57034 0.34984 0.323541
178 1 0.34156 0.63073 0.337087
179 2 0.341519 0.599121 0.326504
180 2 0.347672 0.648796 0.317859
181 1 0.212042 0.598803 0.561372
182 2 0.219824 0.584001 0.546571
183 2 0.212446 0.631656 0.555897
184 1 0.654283 0.0898688 0.561801
185 2 0.644313 0.0924573 0.561959
186 2 0.657633 0.0882466 0.593166
187 1 0.848219 0.549071 0.177889
188 2 0.843648 0.524625 0.194661
189 2 0.843123 0.555655 0.149973
190 1 0.319672 0.476286 0.349845
191 2 0.312992 0.491943 0.330605
192 2 0.322257 0.496089 0.375235
193 1 0.835634 0.479989 0.219607
194 2 0.838434 0.47463 0.251155
195 2 0.830553 0.453561 0.20839
196 1 0.261947 0.548787 0.774196
197 2 0.267414 0.553444 0.801715
198 2 0.258987 0.516985 0.772655
199 1 0.238836 0.565293 0.541717
200 2 0.23723 0.533888 0.551524
201 2 0.248526 0.572704 0.545311
202 1 0.180642 0.49129 0.736203
203 2 0.177903 0.501129 0.766714
204 2 0.173139 0.474423 0.72202
205 1 0.530406 0.446329 0.206746
206 2 0.521484 0.45726 0.217101
207 2 0.537076 0.471088 0.208699
208 1 0.817457 0.104422 0.32167
209 2 0.810525 0.121484 0.338584
210 2 0.826201 0.106264 0.337736
211 1 0.466111 0.639696 0.74878
212 2 0.460322 0.622131 0.769521
213 2 0.462999 0.635158 0.717429
214 1 0.32014 0.444782 0.221659
215 2 0.317274 0.420351 0.242227
216 2 0.323463 0.431587 0.193123
217 1 0.242395 0.593239 0.719814
218 2 0.248784 0.600278 0.695157
219 2 0.247517 0.585836 0.747469
220 1 0.857163 0.778274 0.522572
221 2 0.851757 0.762037 0.499706
222 2 0.859445 0.757514 0.547517
223 1 0.193183 0.398012 0.590327
224 2 0.190627 0.428489 0.579853
225 2 0.203027 0.397027 0.596124
226 1 0.345181 0.514382 0.912347
227 2 0.344735 0.528747 0.882304
228 2 0.336321 0.500738 0.919612
229 1 0.859818 0.755408 0.66023
230 2 0.85106 0.766993 0.671394
231 2 0.865787 0.781015 0.65251
232 1 0.475481 0.597201 0.927991
233 2 0.481318 0.619138 0.912139
234 2 0.471599 0.61146 0.955201
235 1 0.333272 0.382345 0.315248
236 2 0.329351 0.405928 0.334846
237 2 0.342693 0.390447 0.307548
238 1 0.158646 0.305566 0.610205
239 2 0.166366 0.28678 0.619996
240 2 0.155128 0.294093 0.581187
241 1 0.972511 0.108901 0.0829695
242 2 0.963444 0.12288 0.0814326
243 2 0.974609 0.101005 0.11459
244 1 0.202619 0.502024 0.688282
245 2 0.206669 0.531963 0.693988
246 2 0.193973 0.499494 0.704837
247 1 0.359206 0.783295 0.133601
248 2 0.364846 0.794017 0.108249
249 2 0.349565 0.784299 0.124802
250 1 0.861833 0.518626 0.297601
251 2 0.861326 0.544616 0.318403
252 2 0.871155 0.515786 0.285871
253 1 0.257222 0.482287 0.553374
254 2 0.251797 0.475403 0.526231
255 2 0.266891 0.484155 0.545073
256 1 0.451625 0.596126 0.814535
257 2 0.455383 0.569931 0.830906
258 2 0.442297 0.601957 0.825037
259 1 0.278609 0.263258 0.595141
260 2 0.271151 0.282727 0.584462
261 2 0.276458 0.231403 0.588433
262 1 0.125869 0.126889 0.283544
263 2 0.129022 0.153034 0.265736
264 2 0.133587 0.106631 0.289779
265 1 0.795385 0.152396 0.352354
266 2 0.790417 0.179829 0.361537
267 2 0.790136 0.136115 0.329117
268 1 0.609608 0.360393 0.33635
269 2 0.60066 0.373591 0.329467
270 2 0.615209 0.360123 0.308738
271 1 0.878475 0.821878 0.639719
272 2 0.882722 0.811657 0.611324
273 2 0.871555 0.844969 0.632951
274 1 0.86866 0.585051 0.347313
275 2 0.859966 0.599808 0.339991
276 2 0.875973 0.59887 0.329261
277 1 0.872889 0.519245 0.214572
278 2 0.864494 0.526728 0.198076
279 2 0.872527 0.4875 0.224666
280 1 0.334031 0.645629 0.424095
281 2 0.326334 0.62477 0.428305
282 2 0.337804 0.641736 0.393471
283 1 0.289258 0.46338 0.5679
284 2 0.298053 0.47924 0.568289
285 2 0.285373 0.463212 0.598615
286 1 0.0226841 0.0552446 0.0160266
287 2 0.0234075 0.0243007 0.00386961
288 2 0.0133585 0.0605468 0.0268299
289 1 0.343148 0.492564 0.229593
290 2 0.348883 0.467483 0.218797
291 2 0.333517 0.483979 0.226991
292 1 0.161729 0.297736 0.788113
293 2 0.170108 0.297495 0.769923
294 2 0.163375 0.282225 0.817103
295 1 0.226907 0.490442 0.580478
296 2 0.230455 0.485674 0.611276
297 2 0.218778 0.509805 0.581857
298 1 0.31158 0.369575 0.273502
299 2 0.307572 0.339323 0.277678
300 2 0.320266 0.371299 0.28993
ITEM: TIMESTEP
8200
ITEM: NUMBER OF ATOMS
300
ITEM: BOX BOUNDS pp ff pp
0.0000000000000000e+00 1.0000000000000000e+02
0.0000000000000000e+00 3.0000000000000000e+01
0.0000000000000000e+00 3.0000000000000000e+01
ITEM: ATOMS id type xs ys zs
1 1 0.362713 0.728798 0.185577
2 2 0.370252 0.709656 0.174936
3 2 0.362065 0.755975 0.166396
4 1 0.626836 0.330571 0.265775
5 2 0.634333 0.308844 0.261961
6 2 0.627509 0.35429 0.242463
7 1 0.0206033 0.162952 0.948147
8 2 0.0214356 0.158774 0.981101
9 2 0.026607 0.141379 0.932489
10 1 0.550826 0.393055 0.261304
11 2 0.541253 0.401587 0.256833
12 2 0.555359 0.390643 0.23169
13 1 0.878844 0.598666 0.27316
14 2 0.880554 0.587412 0.242306
15 2 0.869388 0.609259 0.275477
16 1 0.284458 0.430568 0.729986
17 2 0.292641 0.411509 0.731923
18 2 0.287061 0.462663 0.732382
19 1 0.312381 0.323968 0.632171
20 2 0.313406 0.330551 0.599673
21 2 0.302665 0.32329 0.640026
22 1 0.169965 0.394542 0.621368
23 2 0.179287 0.396594 0.609487
24 2 0.165374 0.368141 0.607953
25 1 0.3504 0.70517 0.265206
26 2 0.347922 0.73432 0.279105
27 2 0.355938 0.710668 0.238003
28 1 0.574404 0.481576 0.246136
29 2 0.581848 0.459834 0.241374
30 2 0.571335 0.479996 0.277822
31 1 0.557886 0.461255 0.327307
32 2 0.554187 0.443549 0.301899
33 2 0.562797 0.440964 0.348077
34 1 0.164014 0.4142 0.702293
35 2 0.165316 0.408523 0.669734
36 2 0.158024 0.390775 0.715091
37 1 0.284804 0.336544 0.614241
38 2 0.279423 0.363935 0.607989
39 2 0.279386 0.309514 0.606872
40 1 0.317729 0.503773 0.41643
41 2 0.3158 0.531422 0.398957
42 2 0.310088 0.497442 0.436982
43 1 0.134243 0.233763 0.597662
44 2 0.135169 0.234314 0.630848
45 2 0.125979 0.250306 0.58879
46 1 0.547998 0.508903 0.22126
47 2 0.549009 0.537156 0.238624
48 2 0.557041 0.496764 0.213835
49 1 0.593304 0.407518 0.238578
50 2 0.586305 0.388254 0.224586
51 2 0.601121 0.41016 0.217961
52 1 0.87091 0.855367 0.556158
53 2 0.873626 0.834962 0.531404
54 2 0.86967 0.886202 0.54419
55 1 0.745712 0.621293 0.0194903
56 2 0.742469 0.619071 0.0509433
57 2 0.738698 0.635841 0.000706954
58 1 0.254905 0.522076 0.679554
59 2 0.258465 0.533793 0.708416
60 2 0.245465 0.511919 0.683782
61 1 0.228693 0.496387 0.687724
62 2 0.224669 0.520678 0.706193
63 2 0.223598 0.46811 0.692526
64 1 0.295621 0.498233 0.468214
65 2 0.289223 0.476485 0.454677
66 2 0.296203 0.492913 0.501063
67 1 0.347472 0.547466 0.315911
68 2 0.342225 0.525366 0.33371
69 2 0.348401 0.536534 0.284574
70 1 0.853003 0.630926 0.273323
71 2 0.846177 0.618489 0.294269
72 2 0.851798 0.61728 0.243177
73 1 0.99514 0.103067 0.01867
74 2 0.985451 0.106842 0.0260022
75 2 0.99727 0.119886 0.99078
76 1 0.863294 0.663933 0.679194
77 2 0.856945 0.653128 0.702569
78 2 0.862606 0.697086 0.676598
79 1 0.227768 0.398303 0.596678
80 2 0.229727 0.430943 0.594916
81 2 0.235803 0.382228 0.608315
82 1 0.594429 0.317895 0.40525
83 2 0.600008 0.323517 0.378163
84 2 0.597776 0.29068 0.420934
85 1 0.280536 0.468599 0.642924
86 2 0.280125 0.444347 0.665751
87 2 0.272564 0.488455 0.646198
88 1 0.459174 0.553674 0.865381
89 2 0.46188 0.525254 0.850478
90 2 0.465029 0.559007 0.891873
91 1 0.316154 0.502511 0.285837
92 2 0.317407 0.484052 0.258397
93 2 0.311501 0.530918 0.277864
94 1 0.485828 0.635671 0.915082
95 2 0.479661 0.641865 0.889582
96 2 0.49299 0.658915 0.916006
97 1 0.576934 0.384883 0.364968
98 2 0.578674 0.364054 0.390337
99 2 0.585622 0.393835 0.351098
100 1 0.184362 0.341053 0.716288
101 2 0.191825 0.346241 0.694718
102 2 0.177573 0.365334 0.7132
103 1 0.311242 0.501457 0.662874
104 2 0.311916 0.470577 0.675222
105 2 0.301839 0.50728 0.653145
106 1 0.267838 0.402917 0.575873
107 2 0.262752 0.431584 0.57452
108 2 0.276926 0.407292 0.562669
109 1 0.203719 0.509396 0.579691
110 2 0.202606 0.538624 0.564101
111 2 0.202308 0.513588 0.612424
112 1 0.334422 0.458541 0.00178963
113 2 0.34283 0.476569 0.00262186
114 2 0.336532 0.426739 0.0088809
115 1 0.472444 0.651057 0.83664
116 2 0.467469 0.62246 0.83235
117 2 0.472375 0.668411 0.808181
118 1 0.358796 0.491034 0.978103
119 2 0.367626 0.481015 0.96609
120 2 0.351772 0.487311 0.95467
121 1 0.0284414 0.147224 0.0358338
122 2 0.0270082 0.114242 0.0351323
123 2 0.0315837 0.15629 0.066152
124 1 0.140352 0.244958 0.682864
125 2 0.138126 0.221606 0.705463
126 2 0.144394 0.271336 0.698157
127 1 0.865784 0.583408 0.628944
128 2 0.869466 0.610751 0.643533
129 2 0.863811 0.589903 0.596917
130 1 0.631941 0.403036 0.205096
131 2 0.632597 0.41979 0.176362
132 2 0.632141 0.424527 0.230567
133 1 0.216951 0.560262 0.741636
134 2 0.224937 0.578431 0.733126
135 2 0.214403 0.567077 0.773141
136 1 0.257023 0.438669 0.755061
137 2 0.252494 0.409042 0.752727
138 2 0.265751 0.437623 0.738824
139 1 0.334668 0.766348 0.220736
140 2 0.339433 0.737109 0.218766
141 2 0.340148 0.789939 0.205875
142 1 0.316 0.477671 0.935778
143 2 0.306808 0.490431 0.938846
144 2 0.320136 0.474498 0.96596
145 1 0.256445 0.330032 0.532281
146 2 0.248861 0.342322 0.514365
147 2 0.261019 0.354862 0.548474
148 1 0.318133 0.471822 0.558977
149 2 0.320052 0.490998 0.585482
150 2 0.326747 0.462053 0.545146
151 1 0.840853 0.457804 0.283743
152 2 0.838997 0.439538 0.310932
153 2 0.848168 0.479569 0.290291
154 1 0.346544 0.745723 0.466821
155 2 0.349695 0.74072 0.435585
156 2 0.343678 0.716686 0.480116
157 1 0.860843 0.731425 0.557723
158 2 0.865262 0.702494 0.565281
159 2 0.854549 0.739935 0.582188
160 1 0.788697 0.112183 0.296427
161 2 0.786221 0.139153 0.278661
162 2 0.797068 0.0988162 0.284019
163 1 0.5752 0.339193 0.223635
164 2 0.57183 0.333471 0.254493
165 2 0.571817 0.315454 0.203128
166 1 0.311392 0.39849 0.690603
167 2 0.313257 0.367691 0.679474
168 2 0.319887 0.412292 0.701505
169 1 0.993778 0.141681 0.932434
170 2 0.00258063 0.157494 0.932481
171 2 0.991994 0.129382 0.902028
172 1 0.155066 0.323338 0.713743
173 2 0.161939 0.316671 0.737018
174 2 0.159499 0.325684 0.683956
175 1 0.564162 0.323073 0.302872
176 2 0.55725 0.344751 0.29237
177 2 0.567739 0.33296 0.332389
178 1 0.347917 0.638769 0.346856
179 2 0.347942 0.606847 0.33726
180 2 0.348663 0.658434 0.320056
181 1 0.210542 0.602131 0.579054
182 2 0.216945 0.590384 0.556303
183 2 0.210768 0.635456 0.578831
184 1 0.642997 0.0533549 0.588008
185 2 0.641168 0.0439389 0.619397
186 2 0.646628 0.0274974 0.570804
187 1 0.847439 0.565541 0.205283
188 2 0.846032 0.533112 0.2114
189 2 0.841377 0.575229 0.180605
190 1 0.333318 0.476076 0.346677
191 2 0.327922 0.488038 0.321292
192 2 0.328374 0.480942 0.37524
193 1 0.841034 0.477428 0.199285
194 2 0.842157 0.46812 0.231073
195 2 0.840734 0.450378 0.179832
196 1 0.258456 0.535071 0.774545
197 2 0.265821 0.540466 0.796436
198 2 0.255584 0.503185 0.776219
199 1 0.230031 0.556165 0.521853
200 2 0.232332 0.535289 0.546683
201 2 0.228462 0.538753 0.493914
202 1 0.183355 0.48182 0.733655
203 2 0.185783 0.474365 0.76512
204 2 0.173457 0.479151 0.729739
205 1 0.528926 0.427303 0.225788
206 2 0.51925 0.435206 0.22286
207 2 0.534489 0.454759 0.222129
208 1 0.817174 0.109675 0.30911
209 2 0.811723 0.130773 0.327435
210 2 0.825794 0.103279 0.324752
211 1 0.460266 0.656216 0.751046
212 2 0.454655 0.644055 0.775812
213 2 0.454894 0.656974 0.722941
214 1 0.313625 0.428312 0.228396
215 2 0.305217 0.421544 0.245126
216 2 0.316903 0.400636 0.213371
217 1 0.242867 0.595053 0.736088
218 2 0.246296 0.601932 0.705541
219 2 0.249165 0.574146 0.751361
220 1 0.874318 0.780506 0.498044
221 2 0.871648 0.777598 0.466053
222 2 0.869072 0.758905 0.516448
223 1 0.196536 0.412348 0.601179
224 2 0.194657 0.44221 0.587758
225 2 0.206307 0.405689 0.59876
226 1 0.34112 0.484145 0.907924
227 2 0.34303 0.494316 0.876826
228 2 0.331281 0.485792 0.913657
229 1 0.855193 0.752064 0.654131
230 2 0.847924 0.772853 0.66371
231 2 0.863577 0.769372 0.648596
232 1 0.477795 0.554233 0.935852
233 2 0.481056 0.58528 0.93046
234 2 0.480343 0.544678 0.966636
235 1 0.332291 0.391026 0.317673
236 2 0.331725 0.423046 0.326743
237 2 0.341603 0.379903 0.322569
238 1 0.15478 0.320078 0.601477
239 2 0.150679 0.289715 0.602994
240 2 0.147585 0.343161 0.603226
241 1 0.969259 0.109766 0.0622604
242 2 0.969407 0.141046 0.0737694
243 2 0.959785 0.0995542 0.0591876
244 1 0.197303 0.530602 0.66212
245 2 0.201346 0.558204 0.675065
246 2 0.19158 0.515739 0.685062
247 1 0.359815 0.807826 0.131226
248 2 0.352163 0.808307 0.109772
249 2 0.367778 0.822361 0.117254
250 1 0.859147 0.518243 0.305285
251 2 0.857569 0.541641 0.328436
252 2 0.864255 0.53142 0.279837
253 1 0.257972 0.497125 0.579585
254 2 0.249467 0.490662 0.59588
255 2 0.25691 0.525088 0.561791
256 1 0.44312 0.605565 0.820724
257 2 0.449003 0.58923 0.842163
258 2 0.43373 0.605698 0.832184
259 1 0.264451 0.258867 0.580958
260 2 0.261288 0.284268 0.562125
261 2 0.258636 0.232281 0.57562
262 1 0.137782 0.13997 0.264258
263 2 0.138045 0.106743 0.26677
264 2 0.135377 0.153139 0.293812
265 1 0.800403 0.15168 0.370382
266 2 0.794977 0.173822 0.387522
267 2 0.794314 0.132309 0.352384
268 1 0.604001 0.338174 0.314717
269 2 0.598623 0.358262 0.295066
270 2 0.612721 0.33123 0.299947
271 1 0.877722 0.806898 0.641734
272 2 0.875635 0.831495 0.663127
273 2 0.880189 0.819891 0.612159
274 1 0.86564 0.593877 0.356741
275 2 0.871365 0.595862 0.329484
276 2 0.864115 0.624457 0.368998
277 1 0.875532 0.559503 0.197571
278 2 0.866035 0.569463 0.200674
279 2 0.87594 0.532882 0.177556
280 1 0.332245 0.659414 0.431734
281 2 0.331355 0.628689 0.444315
282 2 0.337958 0.658431 0.404391
283 1 0.291506 0.463416 0.552311
284 2 0.301407 0.458886 0.551078
285 2 0.28879 0.470712 0.583551
286 1 0.0203425 0.0634054 0.0165859
287 2 0.0193659 0.0302315 0.0164876
288 2 0.012381 0.0771298 0.0313666
289 1 0.351063 0.480974 0.251446
290 2 0.35741 0.466102 0.230416
291 2 0.344466 0.458615 0.262745
292 1 0.168693 0.285041 0.796754
293 2 0.177172 0.27166 0.785215
294 2 0.168424 0.282196 0.829954
295 1 0.231816 0.489909 0.598846
296 2 0.23134 0.496687 0.631445
297 2 0.222558 0.486794 0.586632
298 1 0.319121 0.338133 0.249639
299 2 0.321301 0.307663 0.261033
300 2 0.323296 0.361024 0.269473
ITEM: TIMESTEP
8300
ITEM: NUMBER OF ATOMS
300
ITEM: BOX BOUNDS pp ff pp
0.0000000000000000e+00 1.0000000000000000e+02
0.0000000000000000e+00 3.0000000000000000e+01
0.0000000000000000e+00 3.0000000000000000e+01
ITEM: ATOMS id type xs ys zs
1 1 0.353465 0.732339 0.198025
2 2 0.357467 0.707288 0.180543
3 2 0.356472 0.761421 0.185184
4 1 0.627711 0.341542 0.272762
5 2 0.630994 0.334104 0.303357
6 2 0.635455 0.35018 0.253524
7 1 0.0243082 0.135319 0.938492
8 2 0.028211 0.131079 0.968887
9 2 0.0306932 0.152699 0.919623
10 1 0.546862 0.38585 0.268414
11 2 0.537571 0.394718 0.259845
12 2 0.553446 0.404024 0.251121
13 1 0.872773 0.618455 0.293416
14 2 0.878583 0.608086 0.268345
15 2 0.863638 0.625418 0.281786
16 1 0.28853 0.441798 0.705269
17 2 0.294807 0.425357 0.685195
18 2 0.292081 0.441351 0.736425
19 1 0.299455 0.331353 0.634708
20 2 0.30404 0.323685 0.606096
21 2 0.289553 0.33122 0.630054
22 1 0.171115 0.375965 0.623224
23 2 0.178909 0.391546 0.609322
24 2 0.166906 0.355628 0.600849
25 1 0.356279 0.714884 0.290712
26 2 0.353133 0.743152 0.304925
27 2 0.355422 0.717373 0.257595
28 1 0.563319 0.445853 0.233719
29 2 0.571413 0.43157 0.220331
30 2 0.56466 0.449448 0.266555
31 1 0.561891 0.447409 0.327192
32 2 0.553134 0.431418 0.32898
33 2 0.568636 0.43164 0.346089
34 1 0.165546 0.43092 0.695524
35 2 0.16737 0.411778 0.66892
36 2 0.155788 0.429913 0.702736
37 1 0.269321 0.347766 0.612074
38 2 0.266877 0.37424 0.593529
39 2 0.265238 0.320348 0.598879
40 1 0.313313 0.497806 0.397471
41 2 0.314112 0.530816 0.401262
42 2 0.305477 0.486688 0.414941
43 1 0.142817 0.242748 0.615709
44 2 0.137524 0.249083 0.643271
45 2 0.146227 0.211431 0.616748
46 1 0.544739 0.517561 0.212573
47 2 0.550093 0.545175 0.218047
48 2 0.550464 0.490756 0.217906
49 1 0.588719 0.412787 0.227766
50 2 0.587197 0.380938 0.236195
51 2 0.598179 0.42119 0.234552
52 1 0.888215 0.880987 0.567102
53 2 0.883836 0.853378 0.55545
54 2 0.888996 0.903386 0.542553
55 1 0.75291 0.621412 0.0248737
56 2 0.745996 0.608296 0.00467861
57 2 0.760841 0.630862 0.0069032
58 1 0.258447 0.521437 0.677549
59 2 0.257724 0.527698 0.7102
60 2 0.250335 0.504795 0.667401
61 1 0.233703 0.4661 0.717102
62 2 0.231071 0.49684 0.726545
63 2 0.229025 0.443717 0.736257
64 1 0.297089 0.479106 0.481557
65 2 0.29169 0.506911 0.477792
66 2 0.295303 0.466005 0.511624
67 1 0.359045 0.55332 0.328788
68 2 0.351277 0.539891 0.344922
69 2 0.360793 0.536099 0.300849
70 1 0.851274 0.647224 0.249179
71 2 0.844692 0.670971 0.257289
72 2 0.846791 0.624335 0.230104
73 1 0.990829 0.0759056 0.997858
74 2 0.981461 0.0824573 0.00750874
75 2 0.993855 0.0992306 0.976288
76 1 0.855088 0.662643 0.67756
77 2 0.849806 0.654138 0.704557
78 2 0.853122 0.694329 0.66955
79 1 0.214668 0.382428 0.600672
80 2 0.223685 0.394662 0.593058
81 2 0.213351 0.353268 0.585132
82 1 0.59319 0.317271 0.376853
83 2 0.598272 0.316436 0.348156
84 2 0.58742 0.290149 0.379195
85 1 0.282012 0.505591 0.64294
86 2 0.281458 0.48483 0.668953
87 2 0.275475 0.530483 0.647022
88 1 0.453979 0.544977 0.845974
89 2 0.453392 0.520217 0.823743
90 2 0.45948 0.535115 0.872004
91 1 0.325905 0.483592 0.263336
92 2 0.319734 0.459903 0.252074
93 2 0.325553 0.509938 0.24295
94 1 0.484225 0.612566 0.926602
95 2 0.482807 0.623022 0.895306
96 2 0.49156 0.630324 0.940675
97 1 0.576951 0.399013 0.393311
98 2 0.583174 0.374451 0.384507
99 2 0.578061 0.405579 0.425781
100 1 0.18576 0.366486 0.732418
101 2 0.185091 0.3636 0.699285
102 2 0.182237 0.39624 0.741794
103 1 0.311458 0.492059 0.674512
104 2 0.313123 0.459421 0.678383
105 2 0.301913 0.498854 0.681767
106 1 0.266787 0.412635 0.555725
107 2 0.261435 0.440075 0.549408
108 2 0.275651 0.421287 0.568496
109 1 0.204632 0.509193 0.589603
110 2 0.199304 0.533641 0.575533
111 2 0.202768 0.508373 0.622343
112 1 0.338537 0.470804 0.00976767
113 2 0.346819 0.474668 0.991486
114 2 0.341018 0.460227 0.0402772
115 1 0.475913 0.633207 0.839658
116 2 0.469509 0.607607 0.839823
117 2 0.472618 0.656699 0.818715
118 1 0.360621 0.476755 0.956948
119 2 0.368969 0.460914 0.947686
120 2 0.354026 0.476167 0.931896
121 1 0.0324693 0.145261 0.0299136
122 2 0.0255794 0.121224 0.0323349
123 2 0.0401021 0.138416 0.0503323
124 1 0.133118 0.273161 0.696259
125 2 0.126599 0.276137 0.721359
126 2 0.141663 0.288471 0.704347
127 1 0.872483 0.595427 0.642807
128 2 0.86577 0.614598 0.65839
129 2 0.879138 0.614746 0.627129
130 1 0.64807 0.374981 0.224362
131 2 0.651053 0.375268 0.192547
132 2 0.653913 0.395254 0.242271
133 1 0.216754 0.570385 0.742692
134 2 0.22645 0.57406 0.749963
135 2 0.2121 0.599715 0.745893
136 1 0.263492 0.440916 0.74609
137 2 0.256165 0.442323 0.723451
138 2 0.27214 0.433872 0.730909
139 1 0.325337 0.752544 0.173331
140 2 0.316926 0.739093 0.185331
141 2 0.333229 0.738663 0.188376
142 1 0.318928 0.481338 0.949493
143 2 0.311858 0.502058 0.960738
144 2 0.326068 0.477997 0.97259
145 1 0.2496 0.350885 0.507425
146 2 0.24847 0.361506 0.476055
147 2 0.25382 0.374961 0.525691
148 1 0.323071 0.487857 0.592518
149 2 0.323096 0.503311 0.622052
150 2 0.331898 0.47295 0.587695
151 1 0.839357 0.457879 0.260438
152 2 0.833864 0.440311 0.282053
153 2 0.846225 0.475525 0.27704
154 1 0.345755 0.766748 0.462915
155 2 0.34402 0.788886 0.438676
156 2 0.34627 0.736139 0.449828
157 1 0.865486 0.737867 0.563098
158 2 0.855753 0.740624 0.555965
159 2 0.867218 0.708282 0.577329
160 1 0.787029 0.138888 0.313885
161 2 0.784081 0.15711 0.287761
162 2 0.794395 0.118378 0.304521
163 1 0.580154 0.328738 0.245349
164 2 0.573882 0.337833 0.269665
165 2 0.575561 0.307228 0.225001
166 1 0.31176 0.393608 0.689659
167 2 0.305705 0.368754 0.680386
168 2 0.321139 0.382269 0.69194
169 1 0.99518 0.133766 0.924911
170 2 0.00477447 0.137596 0.916325
171 2 0.989368 0.149797 0.903031
172 1 0.157453 0.307876 0.72274
173 2 0.162382 0.293648 0.748014
174 2 0.163839 0.325682 0.704274
175 1 0.563544 0.343794 0.326165
176 2 0.555492 0.357161 0.311604
177 2 0.566115 0.362137 0.352646
178 1 0.344485 0.634828 0.325788
179 2 0.347882 0.603485 0.32504
180 2 0.351552 0.655428 0.314307
181 1 0.200761 0.614922 0.549195
182 2 0.208047 0.599445 0.53241
183 2 0.200695 0.647261 0.54112
184 1 0.630322 0.0262114 0.610382
185 2 0.634128 0.0131084 0.582481
186 2 0.631957 0.0590945 0.610692
187 1 0.844839 0.575988 0.19471
188 2 0.84559 0.544022 0.203823
189 2 0.839407 0.578202 0.166812
190 1 0.329701 0.438034 0.34033
191 2 0.329232 0.452662 0.310419
192 2 0.323789 0.454332 0.361712
193 1 0.844276 0.48226 0.174457
194 2 0.8402 0.475386 0.20411
195 2 0.843696 0.455373 0.154849
196 1 0.262041 0.515162 0.788746
197 2 0.263913 0.508506 0.820806
198 2 0.261006 0.486588 0.771932
199 1 0.216129 0.558444 0.512124
200 2 0.225921 0.556299 0.505724
201 2 0.213754 0.537345 0.536686
202 1 0.182371 0.484138 0.745542
203 2 0.18512 0.466484 0.77229
204 2 0.173721 0.472279 0.733748
205 1 0.526743 0.437613 0.226061
206 2 0.518643 0.439677 0.206624
207 2 0.531136 0.467498 0.227947
208 1 0.81376 0.111923 0.300729
209 2 0.81253 0.121435 0.332412
210 2 0.820782 0.0882409 0.299181
211 1 0.455586 0.671671 0.788459
212 2 0.448907 0.651724 0.803207
213 2 0.452184 0.680701 0.758442
214 1 0.312162 0.422416 0.210574
215 2 0.315715 0.394018 0.223392
216 2 0.307641 0.416062 0.181528
217 1 0.244293 0.572477 0.748444
218 2 0.248042 0.60332 0.74652
219 2 0.250554 0.553094 0.765758
220 1 0.882371 0.798509 0.514175
221 2 0.890591 0.783987 0.501953
222 2 0.876854 0.775806 0.530221
223 1 0.18981 0.423356 0.577773
224 2 0.190771 0.454465 0.566235
225 2 0.198861 0.409583 0.581114
226 1 0.340641 0.463079 0.895845
227 2 0.340993 0.440169 0.871662
228 2 0.331556 0.462989 0.909773
229 1 0.850998 0.748425 0.662676
230 2 0.847756 0.763924 0.690138
231 2 0.858862 0.764836 0.650243
232 1 0.471131 0.53289 0.913163
233 2 0.4762 0.561131 0.918461
234 2 0.474023 0.509865 0.935254
235 1 0.339283 0.360223 0.32763
236 2 0.337871 0.392109 0.336129
237 2 0.33756 0.340719 0.354045
238 1 0.148129 0.327772 0.580617
239 2 0.144445 0.300281 0.594917
240 2 0.149177 0.322647 0.547866
241 1 0.96577 0.11338 0.0390805
242 2 0.968051 0.132686 0.0651696
243 2 0.960578 0.131127 0.0167955
244 1 0.203484 0.507079 0.684583
245 2 0.208362 0.531169 0.700905
246 2 0.196152 0.495146 0.703855
247 1 0.360062 0.821276 0.145624
248 2 0.353299 0.843839 0.135937
249 2 0.36926 0.83347 0.140903
250 1 0.85978 0.495806 0.303674
251 2 0.861241 0.519077 0.327038
252 2 0.868134 0.492073 0.285738
253 1 0.25262 0.489045 0.573679
254 2 0.259461 0.494553 0.597362
255 2 0.244122 0.478542 0.587759
256 1 0.43791 0.611948 0.82908
257 2 0.443823 0.588462 0.842158
258 2 0.428344 0.60427 0.835032
259 1 0.25878 0.279946 0.559857
260 2 0.253974 0.301993 0.540663
261 2 0.256832 0.24907 0.549106
262 1 0.148637 0.151156 0.258869
263 2 0.149237 0.184425 0.258355
264 2 0.151122 0.139064 0.228931
265 1 0.806919 0.150956 0.379261
266 2 0.808739 0.183185 0.385228
267 2 0.797877 0.147702 0.365403
268 1 0.600868 0.322306 0.294673
269 2 0.592806 0.322231 0.274949
270 2 0.60888 0.331608 0.27703
271 1 0.871562 0.804626 0.630901
272 2 0.873162 0.784642 0.604761
273 2 0.879243 0.82572 0.634166
274 1 0.872086 0.567593 0.362851
275 2 0.872308 0.590854 0.338987
276 2 0.869601 0.581721 0.391883
277 1 0.873448 0.589812 0.198861
278 2 0.863467 0.589113 0.196947
279 2 0.877114 0.60761 0.173464
280 1 0.345183 0.680617 0.419864
281 2 0.352625 0.668439 0.4385
282 2 0.345004 0.664869 0.390491
283 1 0.294568 0.468099 0.572403
284 2 0.304548 0.468165 0.574475
285 2 0.290698 0.480858 0.600365
286 1 0.0145449 0.07254 0.0406112
287 2 0.0162408 0.0477449 0.0621599
288 2 0.00487496 0.072748 0.0321202
289 1 0.365158 0.505134 0.252693
290 2 0.374707 0.498006 0.245828
291 2 0.359292 0.480571 0.241493
292 1 0.178939 0.269775 0.796774
293 2 0.181243 0.28029 0.766089
294 2 0.186555 0.252049 0.809122
295 1 0.230673 0.461918 0.62242
296 2 0.233723 0.462398 0.654161
297 2 0.220866 0.468308 0.621127
298 1 0.324386 0.353129 0.243344
299 2 0.327963 0.324916 0.230196
300 2 0.329604 0.360857 0.270708
ITEM: TIMESTEP
8400
ITEM: NUMBER OF ATOMS
300
ITEM: BOX BOUNDS pp ff pp
0.0000000000000000e+00 1.0000000000000000e+02
0.0000000000000000e+00 3.0000000000000000e+01
0.0000000000000000e+00 3.0000000000000000e+01
ITEM: ATOMS id type xs ys zs
1 1 0.347117 0.744552 0.212038
2 2 0.345148 0.721863 0.188516
3 2 0.349318 0.773698 0.197623
4 1 0.62985 0.342475 0.277881
5 2 0.629352 0.372149 0.292974
6 2 0.638999 0.338185 0.265132
7 1 0.0264116 0.125109 0.922208
8 2 0.0318873 0.10611 0.942629
9 2 0.0230994 0.151829 0.9388
10 1 0.545537 0.399093 0.280619
11 2 0.536552 0.409928 0.270792
12 2 0.550275 0.423441 0.297017
13 1 0.862936 0.611303 0.290895
14 2 0.867483 0.602078 0.262676
15 2 0.854983 0.630154 0.283619
16 1 0.292178 0.45352 0.734973
17 2 0.297506 0.434809 0.713862
18 2 0.293829 0.443284 0.766215
19 1 0.295803 0.309448 0.615124
20 2 0.29917 0.294639 0.58745
21 2 0.287957 0.328698 0.6076
22 1 0.172315 0.381132 0.65517
23 2 0.176695 0.4062 0.638751
24 2 0.167058 0.36254 0.63376
25 1 0.358088 0.694985 0.282017
26 2 0.361112 0.716621 0.305284
27 2 0.352209 0.710622 0.260049
28 1 0.568202 0.472798 0.241567
29 2 0.573393 0.445524 0.23333
30 2 0.56799 0.475907 0.274748
31 1 0.562104 0.461582 0.329761
32 2 0.554148 0.478325 0.341047
33 2 0.566071 0.443678 0.354576
34 1 0.159847 0.425546 0.727547
35 2 0.162884 0.408945 0.700473
36 2 0.150682 0.415298 0.736085
37 1 0.270966 0.343634 0.593601
38 2 0.267266 0.35957 0.620156
39 2 0.263662 0.326455 0.578658
40 1 0.307877 0.488351 0.400685
41 2 0.30231 0.504687 0.378324
42 2 0.302315 0.481294 0.427474
43 1 0.144652 0.267233 0.623711
44 2 0.140659 0.285722 0.648045
45 2 0.138466 0.242118 0.616293
46 1 0.540414 0.479665 0.207397
47 2 0.542854 0.469411 0.17674
48 2 0.548711 0.48297 0.225708
49 1 0.584516 0.403066 0.217185
50 2 0.580871 0.376816 0.233751
51 2 0.591317 0.392713 0.19505
52 1 0.893052 0.866849 0.611604
53 2 0.894426 0.841266 0.590731
54 2 0.901749 0.874731 0.626044
55 1 0.761332 0.618707 0.0256312
56 2 0.751333 0.619215 0.025739
57 2 0.764794 0.648703 0.0167911
58 1 0.255102 0.524087 0.671072
59 2 0.24753 0.543213 0.681475
60 2 0.259011 0.507782 0.697062
61 1 0.233158 0.472423 0.753111
62 2 0.230626 0.493751 0.777299
63 2 0.225849 0.471185 0.730394
64 1 0.290511 0.480883 0.479576
65 2 0.281024 0.489878 0.485064
66 2 0.295979 0.487212 0.506756
67 1 0.361698 0.549757 0.327891
68 2 0.353886 0.53038 0.320305
69 2 0.370186 0.533063 0.322237
70 1 0.843179 0.645942 0.242429
71 2 0.837927 0.672432 0.232286
72 2 0.843324 0.623018 0.218234
73 1 0.990138 0.0758629 0.993648
74 2 0.980144 0.0769817 0.993466
75 2 0.993644 0.0881689 0.964958
76 1 0.853776 0.667746 0.668138
77 2 0.84719 0.653909 0.68906
78 2 0.854378 0.700465 0.674184
79 1 0.21347 0.382465 0.583533
80 2 0.221219 0.401741 0.592045
81 2 0.216818 0.355138 0.568048
82 1 0.586367 0.328181 0.370153
83 2 0.592696 0.32566 0.344468
84 2 0.57815 0.310265 0.363834
85 1 0.286357 0.487437 0.649312
86 2 0.286083 0.475577 0.680451
87 2 0.2779 0.504034 0.642913
88 1 0.451349 0.537671 0.81672
89 2 0.455182 0.520898 0.790901
90 2 0.456238 0.529296 0.844567
91 1 0.325901 0.502664 0.256287
92 2 0.323218 0.480792 0.232775
93 2 0.328612 0.53135 0.241916
94 1 0.481025 0.585621 0.916564
95 2 0.480534 0.604508 0.889146
96 2 0.486371 0.601416 0.939889
97 1 0.572421 0.399173 0.392579
98 2 0.578436 0.373356 0.386058
99 2 0.571346 0.402406 0.425561
100 1 0.174089 0.335075 0.739841
101 2 0.17208 0.344475 0.70857
102 2 0.178341 0.360389 0.756258
103 1 0.31498 0.497891 0.664674
104 2 0.312311 0.477587 0.689568
105 2 0.306894 0.513696 0.653058
106 1 0.262493 0.434924 0.518993
107 2 0.259353 0.457745 0.540919
108 2 0.272305 0.42987 0.522976
109 1 0.201478 0.525969 0.595012
110 2 0.198361 0.556922 0.588302
111 2 0.200869 0.520435 0.62782
112 1 0.339581 0.456378 0.0160246
113 2 0.348164 0.468791 0.00425772
114 2 0.34072 0.423893 0.0224623
115 1 0.474505 0.624716 0.839896
116 2 0.470726 0.595711 0.829352
117 2 0.467253 0.647649 0.840812
118 1 0.36246 0.477965 0.966995
119 2 0.371389 0.470331 0.979914
120 2 0.362377 0.470448 0.934521
121 1 0.0311414 0.119849 0.0203984
122 2 0.0242043 0.109282 0.0419566
123 2 0.0400696 0.107663 0.0291689
124 1 0.12878 0.297562 0.695677
125 2 0.121185 0.282222 0.711003
126 2 0.137355 0.289817 0.710976
127 1 0.873024 0.629499 0.617374
128 2 0.863903 0.640902 0.624896
129 2 0.879412 0.637777 0.641649
130 1 0.661303 0.355059 0.23425
131 2 0.670095 0.358947 0.249651
132 2 0.662865 0.346329 0.202503
133 1 0.220935 0.564253 0.742558
134 2 0.230059 0.577694 0.740227
135 2 0.215231 0.583157 0.762364
136 1 0.257822 0.453932 0.736456
137 2 0.247858 0.456708 0.736761
138 2 0.260376 0.423572 0.725642
139 1 0.322272 0.707501 0.166542
140 2 0.316629 0.732557 0.155161
141 2 0.324705 0.713261 0.198356
142 1 0.331553 0.48686 0.92754
143 2 0.327765 0.517673 0.929032
144 2 0.33236 0.474451 0.95836
145 1 0.244383 0.369698 0.498293
146 2 0.240923 0.3762 0.467702
147 2 0.250524 0.394192 0.507887
148 1 0.327508 0.46484 0.589466
149 2 0.324795 0.482083 0.616523
150 2 0.335507 0.446151 0.596599
151 1 0.841662 0.466037 0.260638
152 2 0.839504 0.434013 0.266452
153 2 0.845482 0.47975 0.288224
154 1 0.345752 0.769598 0.441856
155 2 0.350327 0.756087 0.468236
156 2 0.344545 0.746397 0.418261
157 1 0.873549 0.731472 0.547198
158 2 0.870903 0.723722 0.578395
159 2 0.868311 0.712847 0.525764
160 1 0.787016 0.159494 0.336799
161 2 0.779183 0.176448 0.324885
162 2 0.791242 0.142023 0.312152
163 1 0.580066 0.313245 0.247152
164 2 0.57563 0.322901 0.275423
165 2 0.581011 0.280061 0.247033
166 1 0.306178 0.392598 0.680853
167 2 0.304618 0.359724 0.6827
168 2 0.308484 0.400886 0.649495
169 1 0.998388 0.119656 0.91136
170 2 0.00826099 0.120469 0.906135
171 2 0.994278 0.147987 0.900367
172 1 0.153644 0.269285 0.729663
173 2 0.159087 0.253012 0.706921
174 2 0.159521 0.290351 0.746502
175 1 0.562554 0.336705 0.321114
176 2 0.554542 0.345225 0.303081
177 2 0.563127 0.356242 0.348054
178 1 0.348898 0.628627 0.32824
179 2 0.355784 0.604623 0.331094
180 2 0.352222 0.652175 0.307413
181 1 0.194027 0.601616 0.54126
182 2 0.201958 0.587136 0.527028
183 2 0.187698 0.611927 0.517601
184 1 0.618665 0.026937 0.629219
185 2 0.61203 0.0484691 0.616636
186 2 0.62793 0.037997 0.623295
187 1 0.849588 0.599177 0.163312
188 2 0.851447 0.568121 0.173719
189 2 0.843172 0.598273 0.137761
190 1 0.326292 0.455517 0.335259
191 2 0.324343 0.473195 0.307756
192 2 0.32152 0.469099 0.361213
193 1 0.845771 0.513215 0.175212
194 2 0.844354 0.500841 0.205801
195 2 0.843908 0.48955 0.152573
196 1 0.259214 0.519038 0.795062
197 2 0.267019 0.513846 0.815243
198 2 0.25897 0.495318 0.771656
199 1 0.210259 0.539309 0.503473
200 2 0.216878 0.518238 0.490049
201 2 0.207359 0.527807 0.533228
202 1 0.184349 0.468515 0.718319
203 2 0.17664 0.448624 0.725744
204 2 0.181516 0.490763 0.695363
205 1 0.52248 0.43521 0.253815
206 2 0.514827 0.455697 0.260181
207 2 0.528388 0.448855 0.230638
208 1 0.809062 0.104222 0.299092
209 2 0.812344 0.117929 0.327438
210 2 0.8168 0.098838 0.278675
211 1 0.452178 0.680255 0.843401
212 2 0.446058 0.65404 0.840625
213 2 0.447614 0.707469 0.831604
214 1 0.317285 0.433331 0.211274
215 2 0.324417 0.411403 0.219339
216 2 0.30911 0.416978 0.201215
217 1 0.247115 0.586036 0.746437
218 2 0.250994 0.613475 0.760259
219 2 0.250523 0.559109 0.762467
220 1 0.891314 0.803765 0.533071
221 2 0.894899 0.800615 0.502113
222 2 0.884811 0.779186 0.539168
223 1 0.191881 0.441464 0.606245
224 2 0.194975 0.469795 0.592027
225 2 0.197524 0.41614 0.595476
226 1 0.351812 0.445888 0.887081
227 2 0.347116 0.423556 0.867913
228 2 0.345168 0.467765 0.899
229 1 0.852851 0.759965 0.676083
230 2 0.854174 0.777418 0.704137
231 2 0.858397 0.773228 0.651723
232 1 0.465021 0.522118 0.891032
233 2 0.470354 0.54569 0.906509
234 2 0.46786 0.492087 0.901975
235 1 0.341495 0.372286 0.33626
236 2 0.337686 0.402735 0.331486
237 2 0.339195 0.361737 0.366937
238 1 0.158858 0.341896 0.58612
239 2 0.156067 0.310819 0.593788
240 2 0.158259 0.346271 0.553135
241 1 0.963858 0.107802 0.0115236
242 2 0.960648 0.130505 0.0334606
243 2 0.957751 0.107398 0.985131
244 1 0.212334 0.494257 0.68461
245 2 0.216586 0.514804 0.706701
246 2 0.204033 0.481149 0.697791
247 1 0.351431 0.817015 0.162581
248 2 0.347897 0.810685 0.132048
249 2 0.355775 0.847037 0.1629
250 1 0.863047 0.485754 0.320845
251 2 0.865366 0.511193 0.340951
252 2 0.87057 0.480414 0.299542
253 1 0.250019 0.478602 0.594082
254 2 0.252335 0.500843 0.61768
255 2 0.240106 0.474283 0.593269
256 1 0.4365 0.607422 0.836366
257 2 0.442211 0.582756 0.824523
258 2 0.426883 0.598408 0.83488
259 1 0.247171 0.304825 0.558342
260 2 0.245724 0.32732 0.534221
261 2 0.241629 0.277775 0.552163
262 1 0.159242 0.161901 0.245533
263 2 0.162902 0.14316 0.220814
264 2 0.159026 0.193822 0.235959
265 1 0.813242 0.163162 0.369002
266 2 0.816252 0.176448 0.39788
267 2 0.803248 0.162601 0.36801
268 1 0.605125 0.306006 0.29431
269 2 0.600078 0.317233 0.267815
270 2 0.614869 0.312377 0.290363
271 1 0.865803 0.810351 0.621281
272 2 0.871989 0.836537 0.621741
273 2 0.85822 0.816476 0.600429
274 1 0.874687 0.560009 0.354839
275 2 0.871732 0.577932 0.328516
276 2 0.873941 0.578524 0.382445
277 1 0.873113 0.595555 0.205196
278 2 0.863946 0.59655 0.191907
279 2 0.879935 0.598423 0.180993
280 1 0.354456 0.692755 0.384882
281 2 0.361699 0.678966 0.403268
282 2 0.35022 0.669391 0.365754
283 1 0.300392 0.491378 0.568006
284 2 0.310286 0.48695 0.569996
285 2 0.296386 0.489246 0.598473
286 1 0.0101292 0.0823538 0.0690863
287 2 0.00736001 0.0749282 0.100243
288 2 0.002202 0.080267 0.0488741
289 1 0.379269 0.511574 0.274352
290 2 0.380402 0.536171 0.252174
291 2 0.383661 0.483916 0.262869
292 1 0.179877 0.253132 0.791324
293 2 0.178709 0.272281 0.764318
294 2 0.173695 0.226995 0.789475
295 1 0.224381 0.473428 0.606753
296 2 0.222904 0.471352 0.639655
297 2 0.218219 0.496297 0.593864
298 1 0.333403 0.35749 0.254992
299 2 0.32842 0.329445 0.261968
300 2 0.338166 0.368089 0.282318
ITEM: TIMESTEP
8500
ITEM: NUMBER OF ATOMS
300
ITEM: BOX BOUNDS pp ff pp
0.0000000000000000e+00 1.0000000000000000e+02
0.0000000000000000e+00 3.0000000000000000e+01
0.0000000000000000e+00 3.0000000000000000e+01
ITEM: ATOMS id type xs ys zs
1 1 0.341638 0.742782 0.200536
2 2 0.336843 0.720721 0.181329
3 2 0.339364 0.773691 0.190624
4 1 0.631425 0.349881 0.26572
5 2 0.62878 0.364733 0.237211
6 2 0.640947 0.339899 0.263693
7 1 0.0291574 0.108481 0.925978
8 2 0.0382059 0.111756 0.939785
9 2 0.0223596 0.10333 0.949876
10 1 0.541693 0.402752 0.318601
11 2 0.533914 0.419984 0.306687
12 2 0.549351 0.423471 0.3241
13 1 0.85748 0.598452 0.271617
14 2 0.866029 0.606636 0.256381
15 2 0.849763 0.611124 0.254622
16 1 0.292737 0.4668 0.716316
17 2 0.29785 0.440294 0.705443
18 2 0.28386 0.456928 0.728065
19 1 0.284427 0.332434 0.637555
20 2 0.287985 0.302558 0.628733
21 2 0.276778 0.340575 0.617684
22 1 0.174243 0.384211 0.662657
23 2 0.181885 0.399321 0.64736
24 2 0.17192 0.356211 0.646312
25 1 0.359864 0.696005 0.260919
26 2 0.359931 0.711793 0.290275
27 2 0.355532 0.715404 0.237979
28 1 0.561949 0.478739 0.235907
29 2 0.567322 0.452793 0.225083
30 2 0.561803 0.478772 0.269236
31 1 0.56395 0.46698 0.331847
32 2 0.564838 0.495097 0.349504
33 2 0.569379 0.442918 0.346155
34 1 0.165709 0.425154 0.736157
35 2 0.167414 0.409398 0.707338
36 2 0.156192 0.43534 0.737181
37 1 0.264105 0.342234 0.569266
38 2 0.269145 0.353046 0.542583
39 2 0.25463 0.352748 0.567522
40 1 0.309919 0.510704 0.40281
41 2 0.304605 0.504286 0.430307
42 2 0.313073 0.542329 0.403496
43 1 0.135882 0.281565 0.613216
44 2 0.131082 0.302418 0.633718
45 2 0.129366 0.259805 0.600337
46 1 0.541229 0.45451 0.194581
47 2 0.544278 0.452689 0.162888
48 2 0.548687 0.466012 0.213578
49 1 0.573357 0.386861 0.220416
50 2 0.581614 0.368234 0.217837
51 2 0.566895 0.372054 0.241103
52 1 0.889284 0.81174 0.648659
53 2 0.891735 0.807969 0.616563
54 2 0.897124 0.82387 0.665424
55 1 0.761385 0.623634 0.0149386
56 2 0.770931 0.628714 0.00640856
57 2 0.75648 0.610033 0.989271
58 1 0.258157 0.494908 0.67881
59 2 0.255849 0.526774 0.672771
60 2 0.259785 0.49078 0.711439
61 1 0.237048 0.475013 0.751352
62 2 0.234316 0.504161 0.764717
63 2 0.23052 0.466392 0.727617
64 1 0.281685 0.514057 0.503804
65 2 0.275653 0.522693 0.528948
66 2 0.290307 0.502431 0.51605
67 1 0.362043 0.533789 0.305668
68 2 0.354499 0.511992 0.303775
69 2 0.370737 0.517618 0.302529
70 1 0.83563 0.638176 0.229632
71 2 0.826167 0.648928 0.229041
72 2 0.839723 0.642097 0.199472
73 1 0.989356 0.111412 0.999001
74 2 0.97941 0.114643 0.997797
75 2 0.992618 0.0977885 0.970588
76 1 0.853272 0.690704 0.652645
77 2 0.85095 0.665018 0.672429
78 2 0.851258 0.719292 0.668416
79 1 0.211211 0.379915 0.546263
80 2 0.217447 0.393621 0.5241
81 2 0.216293 0.359002 0.565929
82 1 0.592852 0.330676 0.384203
83 2 0.59865 0.328467 0.357134
84 2 0.594268 0.303868 0.403443
85 1 0.283459 0.506512 0.622502
86 2 0.291766 0.508874 0.640908
87 2 0.276003 0.494667 0.641293
88 1 0.454882 0.552876 0.806184
89 2 0.458555 0.540836 0.777614
90 2 0.455035 0.528992 0.829431
91 1 0.328589 0.499982 0.277896
92 2 0.330369 0.475529 0.256034
93 2 0.330656 0.529395 0.263807
94 1 0.477653 0.56084 0.897395
95 2 0.475533 0.583769 0.874255
96 2 0.483653 0.574165 0.920496
97 1 0.568768 0.378957 0.372212
98 2 0.578711 0.376043 0.374216
99 2 0.564491 0.360015 0.395645
100 1 0.173449 0.318911 0.742875
101 2 0.178812 0.313538 0.715258
102 2 0.170277 0.35052 0.743291
103 1 0.320183 0.496897 0.696751
104 2 0.320127 0.518405 0.722217
105 2 0.311003 0.484358 0.692571
106 1 0.262357 0.436551 0.518705
107 2 0.258845 0.449909 0.546912
108 2 0.270877 0.451766 0.510155
109 1 0.199589 0.519065 0.624128
110 2 0.199024 0.547647 0.607079
111 2 0.200471 0.525706 0.65666
112 1 0.343452 0.49173 0.983675
113 2 0.351373 0.473685 0.974279
114 2 0.339988 0.480221 0.0127497
115 1 0.4702 0.624747 0.842383
116 2 0.464653 0.608509 0.819896
117 2 0.465291 0.651892 0.852704
118 1 0.363774 0.445777 0.94551
119 2 0.372688 0.430732 0.944171
120 2 0.357819 0.433293 0.92182
121 1 0.0323383 0.0927667 0.0145346
122 2 0.0241643 0.0987566 0.0327789
123 2 0.0404941 0.098808 0.0328523
124 1 0.121932 0.295952 0.701425
125 2 0.115296 0.289573 0.72553
126 2 0.130408 0.279379 0.707604
127 1 0.872487 0.680543 0.589932
128 2 0.863289 0.670498 0.598306
129 2 0.87657 0.697131 0.615441
130 1 0.658795 0.316442 0.258064
131 2 0.665471 0.329236 0.2368
132 2 0.663562 0.299066 0.281657
133 1 0.227305 0.563206 0.776581
134 2 0.234366 0.579895 0.759891
135 2 0.223044 0.583423 0.798956
136 1 0.26249 0.440209 0.766239
137 2 0.252622 0.445592 0.766031
138 2 0.26426 0.407587 0.769729
139 1 0.325314 0.662631 0.174338
140 2 0.330695 0.636024 0.183369
141 2 0.31685 0.663551 0.192065
142 1 0.329038 0.483512 0.908203
143 2 0.320538 0.500983 0.906434
144 2 0.333289 0.488307 0.937992
145 1 0.238191 0.394222 0.494556
146 2 0.237392 0.386043 0.462352
147 2 0.245767 0.41561 0.498537
148 1 0.325248 0.446204 0.615502
149 2 0.321642 0.462053 0.64225
150 2 0.33522 0.444694 0.617487
151 1 0.852531 0.506111 0.263532
152 2 0.852745 0.535666 0.27893
153 2 0.858774 0.48508 0.278884
154 1 0.339585 0.760234 0.414528
155 2 0.340639 0.737416 0.438571
156 2 0.34558 0.752605 0.388963
157 1 0.888913 0.72491 0.514035
158 2 0.882879 0.712732 0.537664
159 2 0.887368 0.708462 0.485503
160 1 0.790755 0.174145 0.356005
161 2 0.783164 0.177831 0.377388
162 2 0.79113 0.142496 0.345618
163 1 0.588976 0.314422 0.256001
164 2 0.579834 0.311243 0.269129
165 2 0.591611 0.285845 0.241258
166 1 0.304325 0.399942 0.662138
167 2 0.297647 0.377461 0.651635
168 2 0.312043 0.400836 0.640962
169 1 0.997777 0.0912479 0.906359
170 2 0.999413 0.119529 0.889579
171 2 0.00623723 0.0735316 0.907735
172 1 0.148887 0.264292 0.693845
173 2 0.150539 0.266824 0.661067
174 2 0.156117 0.280272 0.710426
175 1 0.561613 0.334455 0.293545
176 2 0.551791 0.340712 0.293513
177 2 0.566042 0.352634 0.317265
178 1 0.356001 0.620075 0.327301
179 2 0.357075 0.587372 0.321935
180 2 0.355163 0.635887 0.29809
181 1 0.193002 0.577843 0.560106
182 2 0.199495 0.560716 0.541412
183 2 0.189062 0.602587 0.542042
184 1 0.607142 0.03447 0.648719
185 2 0.603 0.0102835 0.630403
186 2 0.599988 0.054818 0.660048
187 1 0.850138 0.618511 0.152326
188 2 0.847929 0.589312 0.16662
189 2 0.853742 0.613171 0.121695
190 1 0.331283 0.471475 0.366229
191 2 0.329296 0.476893 0.334012
192 2 0.325085 0.489665 0.385029
193 1 0.843229 0.532852 0.178444
194 2 0.845824 0.522647 0.208975
195 2 0.842403 0.506459 0.158272
196 1 0.264734 0.530543 0.776438
197 2 0.270056 0.546086 0.799994
198 2 0.265822 0.497572 0.779741
199 1 0.204594 0.51858 0.501591
200 2 0.209266 0.504997 0.527745
201 2 0.201337 0.494423 0.48135
202 1 0.18641 0.489278 0.712762
203 2 0.178548 0.485371 0.732987
204 2 0.186028 0.466553 0.68841
205 1 0.524595 0.451191 0.266633
206 2 0.515454 0.463028 0.260108
207 2 0.529959 0.450428 0.238511
208 1 0.802499 0.108087 0.306007
209 2 0.809976 0.123449 0.321942
210 2 0.804006 0.109955 0.273107
211 1 0.453751 0.682368 0.886201
212 2 0.447816 0.662501 0.868173
213 2 0.44894 0.691921 0.913816
214 1 0.33114 0.432654 0.203974
215 2 0.331947 0.401555 0.215667
216 2 0.331981 0.432317 0.170761
217 1 0.25133 0.599999 0.734379
218 2 0.25576 0.610839 0.70653
219 2 0.25769 0.580728 0.751417
220 1 0.899894 0.803095 0.562941
221 2 0.907994 0.805879 0.543597
222 2 0.89356 0.781106 0.549452
223 1 0.192369 0.433037 0.619625
224 2 0.192735 0.466344 0.620137
225 2 0.197067 0.421763 0.592444
226 1 0.347067 0.414429 0.883827
227 2 0.346703 0.404003 0.852189
228 2 0.339574 0.435772 0.889457
229 1 0.854541 0.769688 0.699834
230 2 0.862884 0.772303 0.718026
231 2 0.855461 0.788006 0.672154
232 1 0.459714 0.487785 0.867048
233 2 0.466415 0.51057 0.876696
234 2 0.462066 0.458228 0.880316
235 1 0.342848 0.406274 0.324882
236 2 0.338902 0.432407 0.340853
237 2 0.347283 0.386084 0.346904
238 1 0.161111 0.314824 0.604793
239 2 0.1519 0.302198 0.601777
240 2 0.167795 0.292609 0.593788
241 1 0.959956 0.0953372 0.978483
242 2 0.955437 0.100028 0.94912
243 2 0.9568 0.066702 0.991918
244 1 0.211314 0.510496 0.72027
245 2 0.215258 0.528573 0.744998
246 2 0.201632 0.504956 0.726499
247 1 0.338237 0.831841 0.178842
248 2 0.34128 0.8409 0.148409
249 2 0.342691 0.851055 0.201679
250 1 0.866986 0.470606 0.337523
251 2 0.864889 0.501238 0.348657
252 2 0.876883 0.467284 0.334115
253 1 0.2503 0.469137 0.591195
254 2 0.254195 0.475848 0.621154
255 2 0.240452 0.474914 0.591766
256 1 0.43877 0.624249 0.83044
257 2 0.443828 0.597046 0.821122
258 2 0.435479 0.640333 0.803383
259 1 0.232368 0.327906 0.564608
260 2 0.235134 0.348609 0.540165
261 2 0.226791 0.303317 0.551922
262 1 0.171082 0.173875 0.228601
263 2 0.16591 0.184568 0.25505
264 2 0.165725 0.150998 0.212205
265 1 0.817213 0.169321 0.353496
266 2 0.823195 0.190862 0.369288
267 2 0.807709 0.179245 0.356511
268 1 0.609628 0.322136 0.317653
269 2 0.603369 0.325058 0.291819
270 2 0.619016 0.327047 0.307275
271 1 0.861441 0.821272 0.62495
272 2 0.871258 0.815462 0.62751
273 2 0.859829 0.844474 0.601629
274 1 0.86899 0.561534 0.344246
275 2 0.865375 0.574775 0.316129
276 2 0.870915 0.585853 0.36612
277 1 0.882615 0.601877 0.225525
278 2 0.891782 0.607875 0.21363
279 2 0.87849 0.57665 0.208622
280 1 0.358304 0.707054 0.360403
281 2 0.364744 0.717131 0.383826
282 2 0.359013 0.674019 0.356637
283 1 0.301807 0.467436 0.552559
284 2 0.310178 0.459909 0.569167
285 2 0.295633 0.484424 0.572533
286 1 0.00730301 0.0870055 0.0609754
287 2 0.00390638 0.0749679 0.0899239
288 2 -0.000429392 0.0943462 0.0411538
289 1 0.387369 0.494718 0.301547
290 2 0.393399 0.496169 0.328097
291 2 0.392237 0.505975 0.274695
292 1 0.184722 0.257588 0.806288
293 2 0.178805 0.251262 0.832404
294 2 0.179899 0.277291 0.784737
295 1 0.223394 0.473637 0.609025
296 2 0.221851 0.441923 0.617907
297 2 0.216817 0.493257 0.624696
298 1 0.333198 0.356708 0.244324
299 2 0.332446 0.324838 0.253763
300 2 0.334636 0.375898 0.271154
ITEM: TIMESTEP
8600
ITEM: NUMBER OF ATOMS
300
ITEM: BOX BOUNDS pp ff pp
0.0000000000000000e+00 1.0000000000000000e+02
0.0000000000000000e+00 3.0000000000000000e+01
0.0000000000000000e+00 3.0000000000000000e+01
ITEM: ATOMS id type xs ys zs
1 1 0.34204 0.752158 0.191649
2 2 0.337672 0.723868 0.181708
3 2 0.336497 0.778159 0.181971
4 1 0.634088 0.33399 0.272122
5 2 0.636518 0.366096 0.268284
6 2 0.641774 0.314864 0.262687
7 1 0.0306139 0.082914 0.923268
8 2 0.0384135 0.0979054 0.937775
9 2 0.0257333 0.0645712 0.945851
10 1 0.538097 0.394772 0.330021
11 2 0.533681 0.409737 0.304126
12 2 0.544486 0.415961 0.344464
13 1 0.858307 0.611791 0.280955
14 2 0.867832 0.617174 0.272342
15 2 0.852265 0.627417 0.259478
16 1 0.287143 0.460402 0.703081
17 2 0.292787 0.433206 0.698895
18 2 0.281465 0.45674 0.730275
19 1 0.280673 0.346843 0.630494
20 2 0.281054 0.313702 0.627148
21 2 0.272148 0.358257 0.617325
22 1 0.177981 0.35981 0.66657
23 2 0.182623 0.379692 0.644743
24 2 0.17126 0.341031 0.650551
25 1 0.345429 0.693797 0.262647
26 2 0.349787 0.704306 0.290748
27 2 0.346859 0.716351 0.23857
28 1 0.561576 0.464487 0.250837
29 2 0.568906 0.447093 0.236292
30 2 0.561568 0.458345 0.2836
31 1 0.563146 0.436648 0.338114
32 2 0.567992 0.462658 0.351296
33 2 0.565418 0.409048 0.355203
34 1 0.166385 0.417883 0.739966
35 2 0.173928 0.406844 0.721069
36 2 0.158477 0.424449 0.720652
37 1 0.256017 0.37173 0.575533
38 2 0.25802 0.39533 0.552959
39 2 0.247941 0.354538 0.566003
40 1 0.313515 0.518757 0.416693
41 2 0.315066 0.53688 0.444187
42 2 0.311317 0.487392 0.425276
43 1 0.13237 0.327185 0.590829
44 2 0.128364 0.312024 0.617343
45 2 0.125668 0.328043 0.566103
46 1 0.541037 0.448481 0.185821
47 2 0.544927 0.421003 0.17211
48 2 0.5476 0.461561 0.207304
49 1 0.569955 0.390554 0.193366
50 2 0.578183 0.37705 0.180078
51 2 0.566891 0.371946 0.219067
52 1 0.886386 0.778838 0.650111
53 2 0.893867 0.780948 0.628093
54 2 0.885773 0.747624 0.661627
55 1 0.763483 0.624133 0.00164172
56 2 0.755969 0.644504 0.00993112
57 2 0.761856 0.593958 0.014724
58 1 0.259265 0.472561 0.671754
59 2 0.26341 0.442348 0.669041
60 2 0.258819 0.481251 0.703901
61 1 0.239694 0.476424 0.741738
62 2 0.232913 0.489646 0.762364
63 2 0.236638 0.480167 0.710221
64 1 0.28728 0.479707 0.51263
65 2 0.281212 0.499624 0.530103
66 2 0.295317 0.472214 0.530991
67 1 0.363306 0.546263 0.312854
68 2 0.354564 0.537808 0.299054
69 2 0.368297 0.518689 0.321459
70 1 0.842852 0.656582 0.227215
71 2 0.83288 0.658956 0.228093
72 2 0.845616 0.639682 0.200002
73 1 0.983285 0.104712 0.982625
74 2 0.974063 0.106766 0.969899
75 2 0.989708 0.0960153 0.958602
76 1 0.852739 0.70425 0.639879
77 2 0.845886 0.682304 0.650254
78 2 0.854747 0.725769 0.664441
79 1 0.208227 0.407492 0.538808
80 2 0.217523 0.404695 0.526843
81 2 0.205308 0.378206 0.551408
82 1 0.598187 0.350566 0.401247
83 2 0.600884 0.351902 0.369177
84 2 0.604716 0.331778 0.418113
85 1 0.283317 0.505573 0.62695
86 2 0.285162 0.489372 0.655424
87 2 0.27378 0.515595 0.626513
88 1 0.45271 0.582353 0.796871
89 2 0.458081 0.584181 0.768813
90 2 0.45182 0.55046 0.806099
91 1 0.345368 0.488338 0.268951
92 2 0.346099 0.466321 0.244043
93 2 0.337262 0.507319 0.2644
94 1 0.481364 0.517165 0.884392
95 2 0.476921 0.547006 0.883272
96 2 0.491255 0.521221 0.887144
97 1 0.570936 0.371568 0.40171
98 2 0.580885 0.36866 0.399998
99 2 0.56741 0.351047 0.425201
100 1 0.173502 0.322995 0.760389
101 2 0.182103 0.335563 0.74893
102 2 0.166678 0.347275 0.762432
103 1 0.317452 0.473066 0.690849
104 2 0.312021 0.485506 0.715923
105 2 0.311717 0.470222 0.66369
106 1 0.26065 0.441192 0.510469
107 2 0.257681 0.458348 0.537281
108 2 0.270066 0.449501 0.502924
109 1 0.198969 0.501777 0.643562
110 2 0.196898 0.532625 0.632983
111 2 0.203419 0.503315 0.673373
112 1 0.349158 0.516649 0.936367
113 2 0.354304 0.488101 0.935006
114 2 0.355353 0.541666 0.944034
115 1 0.470452 0.601476 0.867981
116 2 0.464634 0.593693 0.84201
117 2 0.467467 0.630519 0.880966
118 1 0.360218 0.427182 0.925338
119 2 0.363229 0.399289 0.940583
120 2 0.354117 0.419358 0.900115
121 1 0.0312868 0.0755356 0.0223005
122 2 0.023004 0.0869891 0.0370539
123 2 0.0393286 0.087027 0.0384407
124 1 0.127526 0.278162 0.66699
125 2 0.121489 0.252358 0.67334
126 2 0.131924 0.288037 0.695252
127 1 0.872406 0.734954 0.56818
128 2 0.86586 0.712171 0.578946
129 2 0.87298 0.759826 0.59029
130 1 0.660103 0.293163 0.263014
131 2 0.66037 0.260012 0.266378
132 2 0.669212 0.304335 0.254988
133 1 0.225142 0.561281 0.792767
134 2 0.231459 0.576279 0.771726
135 2 0.225219 0.577263 0.822019
136 1 0.265258 0.470905 0.769307
137 2 0.255455 0.470007 0.762794
138 2 0.266828 0.462342 0.801094
139 1 0.340485 0.651912 0.172089
140 2 0.34434 0.621631 0.166699
141 2 0.34027 0.658008 0.204852
142 1 0.327719 0.462394 0.913861
143 2 0.319192 0.478423 0.920662
144 2 0.335456 0.480198 0.925224
145 1 0.234576 0.429637 0.488878
146 2 0.231445 0.460976 0.484393
147 2 0.244458 0.429518 0.493974
148 1 0.331915 0.470157 0.603105
149 2 0.331488 0.473404 0.636249
150 2 0.341359 0.474136 0.592893
151 1 0.85978 0.520767 0.246433
152 2 0.859378 0.548029 0.265567
153 2 0.865153 0.49725 0.261835
154 1 0.335088 0.774094 0.38207
155 2 0.340963 0.751963 0.366647
156 2 0.325717 0.762499 0.38306
157 1 0.897641 0.731981 0.498426
158 2 0.889081 0.721122 0.511806
159 2 0.89734 0.727964 0.465351
160 1 0.795802 0.190052 0.37918
161 2 0.788531 0.194208 0.401685
162 2 0.793352 0.165201 0.358519
163 1 0.585555 0.311029 0.278149
164 2 0.577331 0.329997 0.278132
165 2 0.583416 0.281212 0.291234
166 1 0.299988 0.387104 0.680443
167 2 0.291871 0.372235 0.667875
168 2 0.308166 0.370431 0.670951
169 1 0.0021131 0.0830377 0.91519
170 2 0.998518 0.0597228 0.8946
171 2 0.0111745 0.092571 0.904802
172 1 0.150266 0.287246 0.722315
173 2 0.152259 0.293129 0.690184
174 2 0.158359 0.294069 0.740669
175 1 0.561128 0.356142 0.272478
176 2 0.552688 0.339266 0.266576
177 2 0.558974 0.38443 0.28858
178 1 0.372531 0.635459 0.307853
179 2 0.369536 0.604437 0.314863
180 2 0.373757 0.638641 0.274925
181 1 0.192335 0.572366 0.583405
182 2 0.196141 0.551712 0.560524
183 2 0.184392 0.588126 0.570684
184 1 0.594549 0.0376905 0.666673
185 2 0.589407 0.0506704 0.692144
186 2 0.602239 0.0576517 0.65921
187 1 0.843313 0.618613 0.139286
188 2 0.84317 0.585762 0.144921
189 2 0.840002 0.624755 0.108438
190 1 0.328937 0.454762 0.3637
191 2 0.334016 0.468309 0.338383
192 2 0.32241 0.476996 0.375676
193 1 0.846015 0.527261 0.166889
194 2 0.850871 0.526745 0.196026
195 2 0.846983 0.497683 0.151863
196 1 0.270728 0.563411 0.744061
197 2 0.278815 0.572753 0.726827
198 2 0.271954 0.532199 0.755025
199 1 0.199923 0.493691 0.538967
200 2 0.206752 0.50285 0.561529
201 2 0.201445 0.461895 0.53034
202 1 0.188984 0.475848 0.733827
203 2 0.183314 0.460789 0.756786
204 2 0.184483 0.473983 0.70412
205 1 0.527212 0.4459 0.264558
206 2 0.519044 0.465025 0.262502
207 2 0.532168 0.446943 0.235626
208 1 0.79808 0.114303 0.315823
209 2 0.807792 0.122221 0.316362
210 2 0.795975 0.0981425 0.287526
211 1 0.453205 0.666811 0.891774
212 2 0.445966 0.666244 0.868783
213 2 0.449861 0.682121 0.919205
214 1 0.33844 0.421351 0.20516
215 2 0.336301 0.393677 0.22232
216 2 0.337616 0.415199 0.172515
217 1 0.243654 0.590485 0.735973
218 2 0.240374 0.609706 0.711029
219 2 0.253648 0.59123 0.736794
220 1 0.90809 0.774973 0.585728
221 2 0.917715 0.779846 0.578107
222 2 0.903959 0.754531 0.563286
223 1 0.187924 0.429916 0.611505
224 2 0.189645 0.45957 0.625607
225 2 0.192215 0.428973 0.58141
226 1 0.341868 0.405097 0.869478
227 2 0.338412 0.402012 0.838351
228 2 0.336748 0.428941 0.88533
229 1 0.852156 0.769838 0.703397
230 2 0.853509 0.778387 0.735299
231 2 0.854238 0.795909 0.683821
232 1 0.455853 0.500461 0.841594
233 2 0.464209 0.508094 0.85824
234 2 0.454128 0.467714 0.84398
235 1 0.344277 0.39506 0.32651
236 2 0.337559 0.410901 0.345448
237 2 0.351634 0.416111 0.318342
238 1 0.158338 0.30445 0.634118
239 2 0.150543 0.320687 0.620991
240 2 0.161708 0.281936 0.612253
241 1 0.956621 0.0895413 0.954675
242 2 0.949361 0.068714 0.945099
243 2 0.953349 0.108391 0.979911
244 1 0.212494 0.527613 0.725889
245 2 0.21744 0.545541 0.748645
246 2 0.206121 0.507014 0.741237
247 1 0.321983 0.825102 0.188296
248 2 0.329792 0.845546 0.192261
249 2 0.31518 0.831275 0.211934
250 1 0.86866 0.475665 0.345992
251 2 0.863726 0.504492 0.349106
252 2 0.862861 0.45065 0.356562
253 1 0.248884 0.471732 0.585652
254 2 0.252415 0.471996 0.616837
255 2 0.239191 0.463539 0.586041
256 1 0.433432 0.644031 0.834239
257 2 0.438956 0.618945 0.822287
258 2 0.42449 0.644026 0.819318
259 1 0.233592 0.340838 0.52668
260 2 0.237009 0.363236 0.504777
261 2 0.231276 0.312614 0.510713
262 1 0.18107 0.184015 0.213143
263 2 0.180901 0.151909 0.22209
264 2 0.181707 0.203104 0.240387
265 1 0.81864 0.175428 0.333009
266 2 0.823215 0.203649 0.323942
267 2 0.810832 0.182645 0.352544
268 1 0.607797 0.345479 0.31233
269 2 0.600789 0.331466 0.29312
270 2 0.616838 0.335233 0.302434
271 1 0.864876 0.828738 0.654567
272 2 0.873764 0.813638 0.656905
273 2 0.866127 0.86175 0.656549
274 1 0.862845 0.561468 0.350809
275 2 0.86001 0.573681 0.321268
276 2 0.871432 0.575797 0.360114
277 1 0.882879 0.61684 0.241394
278 2 0.880818 0.58579 0.231404
279 2 0.883322 0.636974 0.21487
280 1 0.361766 0.72102 0.335573
281 2 0.367302 0.748537 0.339239
282 2 0.367694 0.69419 0.336486
283 1 0.305181 0.474279 0.569225
284 2 0.314673 0.475168 0.579679
285 2 0.299154 0.484649 0.593719
286 1 0.00822917 0.102661 0.0461177
287 2 0.00218588 0.107657 0.0722014
288 2 0.00465891 0.118983 0.0196021
289 1 0.380377 0.469688 0.327151
290 2 0.375189 0.4412 0.32784
291 2 0.389618 0.463718 0.315898
292 1 0.177719 0.254139 0.835145
293 2 0.168975 0.242725 0.846607
294 2 0.176061 0.278123 0.812666
295 1 0.222352 0.447164 0.616212
296 2 0.217628 0.423951 0.598203
297 2 0.215772 0.462705 0.635923
298 1 0.331596 0.348184 0.270545
299 2 0.325851 0.325082 0.285058
300 2 0.336701 0.364785 0.293909
ITEM: TIMESTEP
8700
ITEM: NUMBER OF ATOMS
300
ITEM: BOX BOUNDS pp ff pp
0.0000000000000000e+00 1.0000000000000000e+02
0.0000000000000000e+00 3.0000000000000000e+01
0.0000000000000000e+00 3.0000000000000000e+01
ITEM: ATOMS id type xs ys zs
1 1 0.337807 0.749664 0.175657
2 2 0.342362 0.774744 0.191519
3 2 0.328003 0.755934 0.173673
4 1 0.635362 0.320016 0.299093
5 2 0.640887 0.341206 0.317065
6 2 0.641373 0.300589 0.280864
7 1 0.0277341 0.0551057 0.932721
8 2 0.0358523 0.0718121 0.922734
9 2 0.0261399 0.0609088 0.965112
10 1 0.533362 0.373044 0.313191
11 2 0.528241 0.391229 0.291076
12 2 0.529944 0.37931 0.343884
13 1 0.8608 0.613844 0.271728
14 2 0.869899 0.627184 0.268096
15 2 0.854307 0.629958 0.252156
16 1 0.285503 0.45303 0.712236
17 2 0.289534 0.42429 0.70201
18 2 0.277692 0.446689 0.732058
19 1 0.276483 0.339675 0.640083
20 2 0.277382 0.307206 0.633164
21 2 0.27091 0.354366 0.61663
22 1 0.177779 0.360348 0.684169
23 2 0.186084 0.372966 0.670545
24 2 0.171729 0.34922 0.660073
25 1 0.331446 0.714356 0.265034
26 2 0.340519 0.703029 0.273282
27 2 0.331216 0.721266 0.232434
28 1 0.567821 0.479154 0.268097
29 2 0.576547 0.495329 0.26628
30 2 0.568241 0.456475 0.292486
31 1 0.563747 0.419162 0.344635
32 2 0.5545 0.424094 0.356321
33 2 0.569109 0.402339 0.367189
34 1 0.1639 0.411479 0.75079
35 2 0.167476 0.392209 0.726341
36 2 0.154888 0.400385 0.760038
37 1 0.26158 0.375938 0.573541
38 2 0.260023 0.401903 0.553292
39 2 0.25309 0.358648 0.576909
40 1 0.314508 0.500005 0.462616
41 2 0.309876 0.521528 0.482852
42 2 0.317785 0.473972 0.480339
43 1 0.128336 0.347068 0.607515
44 2 0.131369 0.319957 0.624064
45 2 0.119475 0.341033 0.593296
46 1 0.546907 0.44824 0.212754
47 2 0.552008 0.430442 0.190278
48 2 0.553225 0.467681 0.229771
49 1 0.563791 0.37178 0.184237
50 2 0.570976 0.352857 0.170846
51 2 0.563373 0.36634 0.217094
52 1 0.892811 0.781886 0.646671
53 2 0.901745 0.766998 0.645048
54 2 0.888883 0.783905 0.616083
55 1 0.769994 0.626807 0.00693608
56 2 0.767067 0.596408 0.997354
57 2 0.775388 0.624403 0.0349016
58 1 0.261927 0.470791 0.669997
59 2 0.268253 0.458001 0.692422
60 2 0.252725 0.47196 0.682992
61 1 0.239181 0.46476 0.722354
62 2 0.235753 0.450885 0.750425
63 2 0.232085 0.463485 0.698902
64 1 0.2867 0.457851 0.493698
65 2 0.288892 0.467308 0.462581
66 2 0.294625 0.462995 0.513366
67 1 0.37307 0.54397 0.308957
68 2 0.368843 0.513935 0.312204
69 2 0.38109 0.545902 0.328771
70 1 0.847634 0.664809 0.211625
71 2 0.840953 0.689387 0.208283
72 2 0.845974 0.641568 0.188379
73 1 0.986455 0.0899974 0.969715
74 2 0.976638 0.0954609 0.966489
75 2 0.989978 0.0760606 0.941804
76 1 0.86355 0.731505 0.610587
77 2 0.871123 0.711564 0.619322
78 2 0.860071 0.747228 0.637595
79 1 0.210644 0.41344 0.547858
80 2 0.213541 0.429319 0.520187
81 2 0.215468 0.384334 0.550153
82 1 0.602177 0.389517 0.389168
83 2 0.604092 0.376898 0.358983
84 2 0.609955 0.407886 0.399241
85 1 0.288403 0.493909 0.62392
86 2 0.296177 0.492059 0.644804
87 2 0.281047 0.474154 0.634859
88 1 0.452777 0.5921 0.785211
89 2 0.458828 0.598433 0.759439
90 2 0.452286 0.559185 0.790213
91 1 0.356972 0.47432 0.260444
92 2 0.355963 0.449119 0.238888
93 2 0.361014 0.500534 0.244874
94 1 0.473204 0.503872 0.859484
95 2 0.469387 0.532164 0.87168
96 2 0.482753 0.50101 0.868964
97 1 0.575743 0.373653 0.421281
98 2 0.584576 0.377436 0.406119
99 2 0.57711 0.359107 0.450925
100 1 0.182293 0.324809 0.777254
101 2 0.181516 0.330812 0.744568
102 2 0.183685 0.353546 0.793495
103 1 0.314621 0.454787 0.696837
104 2 0.308147 0.465253 0.719987
105 2 0.311731 0.425029 0.685313
106 1 0.257174 0.450514 0.510883
107 2 0.254688 0.466024 0.539201
108 2 0.266246 0.460594 0.501132
109 1 0.205141 0.510826 0.637573
110 2 0.196945 0.524098 0.623842
111 2 0.205843 0.520613 0.669351
112 1 0.351426 0.506553 0.939889
113 2 0.356183 0.479782 0.927931
114 2 0.353699 0.510481 0.972111
115 1 0.465288 0.582383 0.885014
116 2 0.457749 0.580644 0.863184
117 2 0.465069 0.61191 0.900466
118 1 0.361692 0.42591 0.916006
119 2 0.367754 0.410351 0.937469
120 2 0.353156 0.408784 0.913124
121 1 0.0269051 0.0709126 0.0235793
122 2 0.0200593 0.0893288 0.0394296
123 2 0.0328503 0.0561208 0.0459309
124 1 0.136874 0.276176 0.653816
125 2 0.133393 0.245052 0.656609
126 2 0.140884 0.285696 0.682829
127 1 0.858714 0.749329 0.521271
128 2 0.862122 0.747326 0.552545
129 2 0.853451 0.721921 0.514046
130 1 0.656064 0.265311 0.262291
131 2 0.665234 0.269097 0.275036
132 2 0.655866 0.238237 0.242857
133 1 0.221648 0.563901 0.799087
134 2 0.231299 0.565963 0.790595
135 2 0.21995 0.582913 0.825875
136 1 0.265095 0.469315 0.770257
137 2 0.255205 0.47146 0.774681
138 2 0.269625 0.493687 0.78726
139 1 0.355468 0.676274 0.176044
140 2 0.351663 0.651599 0.157567
141 2 0.348623 0.700304 0.17966
142 1 0.33023 0.497525 0.887173
143 2 0.329135 0.520423 0.863226
144 2 0.338406 0.504424 0.90508
145 1 0.223241 0.465134 0.488144
146 2 0.221408 0.491146 0.468216
147 2 0.232849 0.465497 0.497382
148 1 0.325072 0.491865 0.623286
149 2 0.323981 0.479073 0.653852
150 2 0.334125 0.505761 0.620577
151 1 0.863313 0.533276 0.231805
152 2 0.863243 0.563499 0.245863
153 2 0.861541 0.510153 0.255076
154 1 0.33782 0.775566 0.322665
155 2 0.34596 0.762419 0.336881
156 2 0.333974 0.753781 0.300935
157 1 0.891269 0.745468 0.541218
158 2 0.882105 0.733267 0.53581
159 2 0.893902 0.765125 0.51577
160 1 0.802793 0.200112 0.397881
161 2 0.796031 0.211147 0.419821
162 2 0.798969 0.174483 0.380799
163 1 0.583774 0.30281 0.287672
164 2 0.575945 0.30959 0.268073
165 2 0.581887 0.275312 0.305431
166 1 0.297009 0.386854 0.659
167 2 0.288436 0.3699 0.661649
168 2 0.298956 0.392733 0.626838
169 1 0.00182956 0.0700642 0.900633
170 2 0.00251007 0.0529389 0.872126
171 2 0.0101667 0.0656321 0.918498
172 1 0.15159 0.316951 0.717898
173 2 0.159894 0.328285 0.703183
174 2 0.153569 0.309449 0.749699
175 1 0.561366 0.36069 0.271783
176 2 0.552061 0.369952 0.279737
177 2 0.567866 0.375831 0.29209
178 1 0.374929 0.626326 0.290042
179 2 0.374383 0.594317 0.299167
180 2 0.372613 0.629125 0.257736
181 1 0.185176 0.559388 0.598919
182 2 0.185889 0.537225 0.574135
183 2 0.177216 0.578921 0.593851
184 1 0.582532 0.0467617 0.68747
185 2 0.576713 0.0274229 0.668472
186 2 0.581887 0.0368682 0.719228
187 1 0.836686 0.607332 0.155025
188 2 0.843294 0.583058 0.148961
189 2 0.827465 0.596415 0.148158
190 1 0.320251 0.466429 0.366365
191 2 0.315739 0.486616 0.344517
192 2 0.32121 0.48211 0.395605
193 1 0.852262 0.531967 0.153346
194 2 0.856267 0.532194 0.183889
195 2 0.857493 0.511394 0.133753
196 1 0.263583 0.561165 0.672142
197 2 0.272373 0.561632 0.656253
198 2 0.260128 0.529906 0.673294
199 1 0.190413 0.490419 0.537427
200 2 0.197325 0.466352 0.536414
201 2 0.183305 0.484077 0.514852
202 1 0.187291 0.460818 0.756455
203 2 0.181464 0.486143 0.76607
204 2 0.181811 0.438556 0.739669
205 1 0.521679 0.429748 0.253597
206 2 0.514902 0.435695 0.229819
207 2 0.5308 0.437233 0.24216
208 1 0.79615 0.133141 0.330927
209 2 0.803579 0.153962 0.322896
210 2 0.797497 0.104011 0.315358
211 1 0.456544 0.661829 0.918098
212 2 0.449097 0.658322 0.896133
213 2 0.453676 0.682456 0.942474
214 1 0.346861 0.392383 0.22177
215 2 0.342173 0.370401 0.24136
216 2 0.347263 0.380535 0.190642
217 1 0.246671 0.579548 0.757502
218 2 0.245738 0.558975 0.731461
219 2 0.249092 0.610026 0.746681
220 1 0.914362 0.742026 0.601838
221 2 0.923727 0.739372 0.590457
222 2 0.907937 0.737209 0.576755
223 1 0.198437 0.410652 0.645946
224 2 0.200685 0.440136 0.659572
225 2 0.201534 0.410112 0.614257
226 1 0.334634 0.401372 0.904124
227 2 0.326531 0.383019 0.910813
228 2 0.33181 0.431279 0.892807
229 1 0.850986 0.77274 0.678136
230 2 0.841509 0.780059 0.685849
231 2 0.857032 0.796376 0.690232
232 1 0.452275 0.507024 0.803653
233 2 0.460746 0.502984 0.820902
234 2 0.450971 0.481054 0.783212
235 1 0.34025 0.401521 0.340516
236 2 0.332428 0.417474 0.353818
237 2 0.344724 0.421286 0.318199
238 1 0.162905 0.317874 0.619963
239 2 0.153231 0.325762 0.622972
240 2 0.164245 0.299704 0.592377
241 1 0.960101 0.0908845 0.94014
242 2 0.952753 0.0701973 0.949256
243 2 0.956159 0.118544 0.926973
244 1 0.211913 0.492129 0.73215
245 2 0.213097 0.517256 0.753693
246 2 0.203641 0.475076 0.739903
247 1 0.31036 0.787753 0.188912
248 2 0.300809 0.778229 0.191545
249 2 0.311076 0.820401 0.195199
250 1 0.861483 0.488102 0.31645
251 2 0.855674 0.466113 0.332345
252 2 0.867088 0.504529 0.338635
253 1 0.251773 0.49538 0.586085
254 2 0.258229 0.494366 0.611523
255 2 0.242659 0.486927 0.596888
256 1 0.437871 0.648583 0.850044
257 2 0.442193 0.632637 0.824564
258 2 0.42794 0.645293 0.84792
259 1 0.237034 0.359816 0.50555
260 2 0.242839 0.386075 0.498676
261 2 0.233418 0.347165 0.477164
262 1 0.191486 0.193697 0.197022
263 2 0.192783 0.203039 0.228726
264 2 0.198751 0.172529 0.188274
265 1 0.817087 0.185978 0.313122
266 2 0.820795 0.206237 0.289714
267 2 0.819246 0.198175 0.343298
268 1 0.60781 0.356155 0.309548
269 2 0.599663 0.342581 0.295787
270 2 0.615977 0.341091 0.297593
271 1 0.872856 0.823476 0.713603
272 2 0.877602 0.805012 0.690801
273 2 0.87536 0.812993 0.744125
274 1 0.859489 0.568648 0.385093
275 2 0.858608 0.567834 0.3519
276 2 0.851725 0.585117 0.398135
277 1 0.886548 0.633699 0.245843
278 2 0.887331 0.607485 0.266267
279 2 0.884935 0.623043 0.21472
280 1 0.36255 0.703748 0.310875
281 2 0.370296 0.723412 0.303277
282 2 0.365827 0.672781 0.316602
283 1 0.305305 0.489459 0.556029
284 2 0.313921 0.493456 0.572472
285 2 0.297661 0.496789 0.576229
286 1 0.00469755 0.112571 0.0348881
287 2 0.00778494 0.142597 0.024706
288 2 0.996324 0.104297 0.0186514
289 1 0.374219 0.460569 0.350411
290 2 0.375629 0.439329 0.325155
291 2 0.366306 0.450859 0.368332
292 1 0.165705 0.269914 0.83037
293 2 0.169591 0.26134 0.859862
294 2 0.171332 0.293722 0.816495
295 1 0.226378 0.468131 0.615423
296 2 0.223961 0.44633 0.591529
297 2 0.218322 0.486118 0.623569
298 1 0.332858 0.333734 0.280282
299 2 0.327429 0.309357 0.294042
300 2 0.335947 0.354704 0.304059
ITEM: TIMESTEP
8800
ITEM: NUMBER OF ATOMS
300
ITEM: BOX BOUNDS pp ff pp
0.0000000000000000e+00 1.0000000000000000e+02
0.0000000000000000e+00 3.0000000000000000e+01
0.0000000000000000e+00 3.0000000000000000e+01
ITEM: ATOMS id type xs ys zs
1 1 0.335487 0.731896 0.177053
2 2 0.332693 0.712835 0.202764
3 2 0.327423 0.746297 0.163589
4 1 0.632375 0.292613 0.311257
5 2 0.638463 0.289671 0.337538
6 2 0.637377 0.284942 0.283432
7 1 0.02533 0.0334413 0.93999
8 2 0.0348473 0.023615 0.937139
9 2 0.0241364 0.0499662 0.968664
10 1 0.534481 0.34379 0.290406
11 2 0.530732 0.369642 0.273476
12 2 0.527252 0.32143 0.295924
13 1 0.865189 0.623414 0.26258
14 2 0.87372 0.639427 0.25579
15 2 0.858052 0.633631 0.241588
16 1 0.285352 0.46002 0.723422
17 2 0.284962 0.428003 0.714238
18 2 0.27851 0.465737 0.74705
19 1 0.275006 0.350818 0.644733
20 2 0.268856 0.329692 0.660373
21 2 0.27304 0.35051 0.612051
22 1 0.176631 0.36647 0.669166
23 2 0.18493 0.384731 0.672693
24 2 0.174194 0.364726 0.636885
25 1 0.32742 0.700986 0.258607
26 2 0.330617 0.679998 0.282209
27 2 0.330978 0.731532 0.264725
28 1 0.569528 0.486572 0.292019
29 2 0.571189 0.512388 0.312367
30 2 0.566566 0.46024 0.309914
31 1 0.55891 0.41489 0.353218
32 2 0.549356 0.419063 0.362132
33 2 0.564565 0.411687 0.380522
34 1 0.166067 0.409393 0.752521
35 2 0.167402 0.385566 0.729639
36 2 0.156299 0.415742 0.755764
37 1 0.264605 0.362732 0.563406
38 2 0.269906 0.374292 0.537613
39 2 0.255391 0.37566 0.562519
40 1 0.317906 0.476778 0.471441
41 2 0.311846 0.492259 0.49297
42 2 0.326191 0.466883 0.487265
43 1 0.128656 0.353074 0.600031
44 2 0.131727 0.323765 0.612167
45 2 0.120017 0.361633 0.614471
46 1 0.549906 0.454456 0.225355
47 2 0.554616 0.426672 0.215732
48 2 0.556485 0.475377 0.239224
49 1 0.559082 0.367508 0.201783
50 2 0.550089 0.353213 0.198949
51 2 0.562951 0.360441 0.231698
52 1 0.897741 0.801476 0.684535
53 2 0.900898 0.781392 0.6601
54 2 0.900781 0.832641 0.678438
55 1 0.772073 0.632127 0.00583435
56 2 0.779581 0.648113 0.990694
57 2 0.772886 0.63597 0.0388342
58 1 0.262621 0.487755 0.66967
59 2 0.270476 0.48502 0.690113
60 2 0.254922 0.470498 0.682113
61 1 0.239731 0.45137 0.705268
62 2 0.234974 0.478079 0.717363
63 2 0.233489 0.433893 0.685962
64 1 0.287059 0.452105 0.494439
65 2 0.291713 0.450232 0.464995
66 2 0.293434 0.443793 0.51874
67 1 0.376838 0.556694 0.283598
68 2 0.377264 0.525602 0.295529
69 2 0.376309 0.578257 0.308956
70 1 0.847858 0.653527 0.20537
71 2 0.847052 0.681011 0.186701
72 2 0.844458 0.62729 0.188214
73 1 0.989827 0.0856461 0.959551
74 2 0.980937 0.0906206 0.945124
75 2 0.995146 0.0640618 0.94136
76 1 0.869878 0.742762 0.604271
77 2 0.867253 0.717454 0.624122
78 2 0.870766 0.770583 0.62239
79 1 0.210222 0.406244 0.547266
80 2 0.214725 0.428626 0.527647
81 2 0.216712 0.382163 0.55522
82 1 0.5988 0.415337 0.368891
83 2 0.602995 0.38564 0.363087
84 2 0.604643 0.439396 0.356526
85 1 0.285402 0.467627 0.614933
86 2 0.291777 0.46832 0.640605
87 2 0.276208 0.475147 0.625673
88 1 0.453021 0.605664 0.800199
89 2 0.462487 0.609291 0.790084
90 2 0.448752 0.580609 0.78344
91 1 0.368088 0.428256 0.262798
92 2 0.36284 0.402328 0.251274
93 2 0.366929 0.454257 0.2423
94 1 0.465023 0.486784 0.84049
95 2 0.465123 0.515408 0.857569
96 2 0.466408 0.461283 0.861454
97 1 0.579426 0.404525 0.427937
98 2 0.585189 0.403828 0.400706
99 2 0.584997 0.397889 0.45481
100 1 0.184228 0.344055 0.787566
101 2 0.193616 0.343493 0.776096
102 2 0.181025 0.375591 0.789179
103 1 0.312129 0.452008 0.693616
104 2 0.303798 0.458071 0.71103
105 2 0.312347 0.419902 0.684687
106 1 0.255055 0.473998 0.509857
107 2 0.251195 0.486755 0.537836
108 2 0.265015 0.4769 0.510565
109 1 0.209507 0.532262 0.660485
110 2 0.201998 0.54676 0.643917
111 2 0.205906 0.516894 0.68752
112 1 0.352245 0.508007 0.928076
113 2 0.352452 0.474757 0.93033
114 2 0.349191 0.520901 0.95708
115 1 0.464427 0.572082 0.883542
116 2 0.457973 0.580182 0.859405
117 2 0.465793 0.598294 0.903624
118 1 0.349164 0.414427 0.933098
119 2 0.349313 0.391825 0.957593
120 2 0.339959 0.416153 0.920191
121 1 0.0223221 0.0652398 0.0197118
122 2 0.0174461 0.0852204 0.040871
123 2 0.0211984 0.0335286 0.0292763
124 1 0.142274 0.284264 0.65167
125 2 0.140096 0.254255 0.664232
126 2 0.149111 0.299146 0.670913
127 1 0.857894 0.772862 0.529724
128 2 0.858228 0.749941 0.505548
129 2 0.86374 0.76329 0.555016
130 1 0.650696 0.250425 0.25303
131 2 0.647512 0.240426 0.223054
132 2 0.660537 0.245073 0.255556
133 1 0.229176 0.547153 0.779665
134 2 0.238943 0.552983 0.775501
135 2 0.226164 0.560351 0.808581
136 1 0.26267 0.473572 0.773491
137 2 0.256465 0.464834 0.748853
138 2 0.261056 0.505417 0.781744
139 1 0.3628 0.70286 0.187909
140 2 0.361862 0.717269 0.217804
141 2 0.354332 0.706869 0.170636
142 1 0.337381 0.501172 0.848182
143 2 0.344407 0.498229 0.824644
144 2 0.341623 0.510874 0.876767
145 1 0.21662 0.486489 0.498764
146 2 0.223895 0.482452 0.476256
147 2 0.213116 0.517662 0.497042
148 1 0.322021 0.509485 0.624665
149 2 0.316601 0.495496 0.648934
150 2 0.331393 0.514113 0.635329
151 1 0.862628 0.539344 0.237319
152 2 0.862616 0.570088 0.250199
153 2 0.863767 0.517046 0.261804
154 1 0.342033 0.792077 0.289515
155 2 0.346955 0.763105 0.291112
156 2 0.348418 0.8172 0.294701
157 1 0.891628 0.768431 0.552195
158 2 0.883721 0.756613 0.568835
159 2 0.889279 0.771868 0.519977
160 1 0.81238 0.207678 0.399425
161 2 0.809483 0.218911 0.429286
162 2 0.805467 0.186788 0.387431
163 1 0.590621 0.312072 0.283769
164 2 0.581637 0.326614 0.282049
165 2 0.59229 0.294761 0.255832
166 1 0.30232 0.374598 0.649774
167 2 0.29247 0.370517 0.645732
168 2 0.307129 0.362911 0.622986
169 1 0.0035496 0.0417891 0.888581
170 2 0.00332771 0.0615212 0.861725
171 2 0.0130201 0.0336296 0.895507
172 1 0.16115 0.309114 0.711501
173 2 0.167347 0.330247 0.696078
174 2 0.163349 0.308145 0.744004
175 1 0.561305 0.34361 0.288877
176 2 0.551307 0.342915 0.288879
177 2 0.564549 0.357976 0.316944
178 1 0.366583 0.629878 0.248983
179 2 0.371193 0.602402 0.259943
180 2 0.367616 0.632085 0.215902
181 1 0.185216 0.539128 0.612607
182 2 0.18908 0.514006 0.594884
183 2 0.176241 0.547197 0.600324
184 1 0.569271 0.0503822 0.707648
185 2 0.574143 0.0293746 0.7278
186 2 0.575328 0.0755307 0.699219
187 1 0.835277 0.582492 0.159776
188 2 0.844369 0.568615 0.159457
189 2 0.828331 0.558681 0.156937
190 1 0.318682 0.473874 0.375333
191 2 0.31086 0.487719 0.359857
192 2 0.31843 0.481738 0.407715
193 1 0.85878 0.551351 0.151965
194 2 0.860214 0.54023 0.183023
195 2 0.865129 0.536004 0.131286
196 1 0.24336 0.587634 0.691817
197 2 0.233921 0.581153 0.700715
198 2 0.244688 0.579374 0.659828
199 1 0.186286 0.464183 0.553819
200 2 0.194082 0.443365 0.55539
201 2 0.179068 0.450533 0.535223
202 1 0.183281 0.47499 0.799079
203 2 0.17889 0.46632 0.827744
204 2 0.177648 0.464807 0.77349
205 1 0.525453 0.411819 0.238452
206 2 0.518883 0.429207 0.220308
207 2 0.534004 0.42893 0.240858
208 1 0.795239 0.156178 0.352573
209 2 0.800091 0.166386 0.325273
210 2 0.792849 0.123969 0.349375
211 1 0.458685 0.647357 0.934881
212 2 0.452995 0.659466 0.91029
213 2 0.464018 0.672095 0.94841
214 1 0.351167 0.365132 0.231353
215 2 0.349335 0.346777 0.2585
216 2 0.348289 0.348342 0.204202
217 1 0.257253 0.562963 0.770714
218 2 0.255309 0.56901 0.738581
219 2 0.262589 0.588143 0.783391
220 1 0.905715 0.72883 0.615796
221 2 0.912161 0.706975 0.602689
222 2 0.901411 0.746345 0.591331
223 1 0.203442 0.399329 0.681897
224 2 0.20614 0.428662 0.694926
225 2 0.211529 0.383692 0.670065
226 1 0.323846 0.43376 0.903985
227 2 0.31813 0.413071 0.886098
228 2 0.326244 0.460304 0.885474
229 1 0.859316 0.804021 0.667194
230 2 0.852511 0.828211 0.663823
231 2 0.861893 0.801238 0.699281
232 1 0.452826 0.511733 0.758429
233 2 0.456476 0.499487 0.786945
234 2 0.457049 0.495953 0.732661
235 1 0.337346 0.415916 0.338931
236 2 0.328362 0.427772 0.347514
237 2 0.341856 0.437485 0.318439
238 1 0.161847 0.32676 0.593656
239 2 0.154043 0.339861 0.577448
240 2 0.159299 0.297029 0.606107
241 1 0.96123 0.0945133 0.92316
242 2 0.952317 0.0926988 0.938168
243 2 0.960541 0.0818563 0.892409
244 1 0.212246 0.471777 0.748652
245 2 0.216809 0.500422 0.756346
246 2 0.203687 0.469411 0.765725
247 1 0.306079 0.736846 0.182728
248 2 0.300132 0.760154 0.195955
249 2 0.305162 0.708529 0.200047
250 1 0.856789 0.490714 0.304286
251 2 0.860313 0.480996 0.333928
252 2 0.850983 0.51756 0.308265
253 1 0.24483 0.501434 0.596211
254 2 0.251652 0.488646 0.61696
255 2 0.235801 0.489338 0.60389
256 1 0.441675 0.664297 0.860617
257 2 0.44542 0.642415 0.838789
258 2 0.431737 0.665734 0.857199
259 1 0.237431 0.393914 0.509164
260 2 0.242096 0.422939 0.503977
261 2 0.238125 0.375023 0.481799
262 1 0.201998 0.19895 0.177904
263 2 0.203279 0.183589 0.148631
264 2 0.194573 0.221129 0.175306
265 1 0.813476 0.196116 0.303321
266 2 0.816071 0.222005 0.284189
267 2 0.817047 0.200602 0.334131
268 1 0.61132 0.340347 0.338016
269 2 0.603688 0.329023 0.319694
270 2 0.619867 0.327157 0.32682
271 1 0.875179 0.777102 0.736035
272 2 0.882356 0.786486 0.714807
273 2 0.876792 0.745635 0.74563
274 1 0.851496 0.579027 0.328348
275 2 0.846649 0.605143 0.341313
276 2 0.857688 0.589519 0.304367
277 1 0.893164 0.632997 0.238147
278 2 0.902406 0.625712 0.248587
279 2 0.88865 0.605165 0.227655
280 1 0.358769 0.714991 0.279646
281 2 0.365752 0.720964 0.302744
282 2 0.360437 0.68523 0.265702
283 1 0.307018 0.504476 0.5512
284 2 0.314764 0.50817 0.571954
285 2 0.298502 0.504492 0.568671
286 1 0.00168293 0.124896 0.0280551
287 2 0.999415 0.112565 0.998023
288 2 0.99373 0.122359 0.0481012
289 1 0.3701 0.430937 0.379006
290 2 0.37348 0.419827 0.349668
291 2 0.360213 0.435606 0.377205
292 1 0.160194 0.300769 0.806658
293 2 0.160598 0.275595 0.828465
294 2 0.168523 0.31906 0.809077
295 1 0.220188 0.461094 0.614346
296 2 0.215014 0.441034 0.594068
297 2 0.213973 0.482992 0.62857
298 1 0.341351 0.315214 0.302378
299 2 0.341696 0.288965 0.32289
300 2 0.338456 0.342201 0.319398
ITEM: TIMESTEP
8900
ITEM: NUMBER OF ATOMS
300
ITEM: BOX BOUNDS pp ff pp
0.0000000000000000e+00 1.0000000000000000e+02
0.0000000000000000e+00 3.0000000000000000e+01
0.0000000000000000e+00 3.0000000000000000e+01
ITEM: ATOMS id type xs ys zs
1 1 0.33306 0.714272 0.170072
2 2 0.327064 0.713974 0.196747
3 2 0.327705 0.721624 0.142897
4 1 0.633029 0.265131 0.331552
5 2 0.637843 0.261885 0.360589
6 2 0.639347 0.258926 0.306468
7 1 0.027209 0.00600849 0.943844
8 2 0.037127 0.00362889 0.947379
9 2 0.0233583 0.0221877 0.970009
10 1 0.538533 0.328414 0.26707
11 2 0.533869 0.357525 0.262385
12 2 0.533689 0.304405 0.250519
13 1 0.862988 0.623467 0.254659
14 2 0.868529 0.649129 0.265215
15 2 0.856893 0.633682 0.230286
16 1 0.284228 0.427418 0.726894
17 2 0.283311 0.423587 0.693923
18 2 0.27616 0.443111 0.738794
19 1 0.271223 0.363331 0.632765
20 2 0.265917 0.346156 0.655201
21 2 0.265504 0.369814 0.606198
22 1 0.169875 0.36239 0.697409
23 2 0.178876 0.376756 0.69951
24 2 0.166278 0.366164 0.666536
25 1 0.316904 0.715318 0.25368
26 2 0.311871 0.719196 0.282222
27 2 0.325838 0.730074 0.256204
28 1 0.562993 0.479359 0.303533
29 2 0.567423 0.502863 0.321987
30 2 0.562164 0.451334 0.321367
31 1 0.560996 0.401696 0.381831
32 2 0.55446 0.393607 0.405727
33 2 0.568837 0.417277 0.395438
34 1 0.161608 0.430515 0.767435
35 2 0.161567 0.414347 0.738286
36 2 0.158754 0.409742 0.791707
37 1 0.258837 0.376421 0.553597
38 2 0.266309 0.37978 0.531699
39 2 0.254337 0.405867 0.557964
40 1 0.302517 0.460526 0.486772
41 2 0.306889 0.477114 0.511744
42 2 0.303972 0.4278 0.49085
43 1 0.133345 0.354866 0.585926
44 2 0.135449 0.324986 0.59893
45 2 0.128641 0.37349 0.608694
46 1 0.548408 0.456143 0.221383
47 2 0.55407 0.429286 0.215593
48 2 0.551582 0.471399 0.249068
49 1 0.56015 0.374913 0.215166
50 2 0.554459 0.351594 0.200763
51 2 0.563246 0.364016 0.24493
52 1 0.906856 0.778024 0.726983
53 2 0.905721 0.775478 0.693963
54 2 0.915871 0.790748 0.733776
55 1 0.776899 0.639736 0.0102723
56 2 0.786251 0.651336 0.0124424
57 2 0.777117 0.606777 0.00534773
58 1 0.264123 0.501404 0.664214
59 2 0.269732 0.5184 0.685953
60 2 0.255432 0.493195 0.678515
61 1 0.239637 0.481643 0.713823
62 2 0.231419 0.485638 0.732392
63 2 0.237233 0.466227 0.685376
64 1 0.277729 0.442132 0.514919
65 2 0.284907 0.456636 0.496798
66 2 0.27927 0.448503 0.547233
67 1 0.379257 0.524913 0.256002
68 2 0.372746 0.529657 0.280854
69 2 0.380061 0.492298 0.249667
70 1 0.847606 0.660224 0.193027
71 2 0.844631 0.683123 0.170927
72 2 0.843067 0.631239 0.18654
73 1 0.990509 0.0983367 0.929844
74 2 0.980843 0.0993889 0.921364
75 2 0.994379 0.0689446 0.920856
76 1 0.866377 0.76089 0.605645
77 2 0.85946 0.740556 0.618527
78 2 0.867917 0.786446 0.626421
79 1 0.210926 0.438195 0.54065
80 2 0.212968 0.468414 0.528339
81 2 0.217042 0.415724 0.526845
82 1 0.600244 0.408067 0.353525
83 2 0.60704 0.383697 0.35553
84 2 0.593269 0.399806 0.331114
85 1 0.286679 0.46582 0.610297
86 2 0.29255 0.443997 0.626168
87 2 0.279955 0.478211 0.631634
88 1 0.456334 0.624121 0.797657
89 2 0.464993 0.62912 0.781747
90 2 0.451136 0.600317 0.782026
91 1 0.374817 0.435128 0.246337
92 2 0.365404 0.423941 0.24515
93 2 0.381097 0.410325 0.238742
94 1 0.456725 0.478505 0.82095
95 2 0.458611 0.507505 0.836133
96 2 0.454425 0.455448 0.843771
97 1 0.582513 0.444186 0.41179
98 2 0.59 0.434815 0.39178
99 2 0.586094 0.463652 0.436072
100 1 0.186078 0.334444 0.793977
101 2 0.191412 0.344067 0.767475
102 2 0.192236 0.328451 0.819547
103 1 0.309067 0.449122 0.668361
104 2 0.30617 0.443812 0.699821
105 2 0.310606 0.419869 0.653227
106 1 0.24653 0.461393 0.511705
107 2 0.247372 0.486609 0.533324
108 2 0.255644 0.450776 0.503016
109 1 0.215149 0.540007 0.679748
110 2 0.207533 0.521835 0.668066
111 2 0.217091 0.531118 0.711216
112 1 0.360277 0.491425 0.944684
113 2 0.35276 0.471653 0.954294
114 2 0.364331 0.506029 0.971427
115 1 0.461408 0.552483 0.866423
116 2 0.459218 0.575158 0.843106
117 2 0.461855 0.567299 0.896246
118 1 0.339099 0.440733 0.971992
119 2 0.337597 0.408771 0.980021
120 2 0.331714 0.451174 0.952087
121 1 0.0182318 0.0574474 0.0154777
122 2 0.00975349 0.0741947 0.0211312
123 2 0.0255021 0.0697045 0.0348057
124 1 0.144598 0.282336 0.615413
125 2 0.137619 0.258862 0.619758
126 2 0.15101 0.281666 0.640984
127 1 0.863372 0.78455 0.497341
128 2 0.862469 0.81667 0.505733
129 2 0.856526 0.766603 0.513717
130 1 0.644778 0.243561 0.255063
131 2 0.647448 0.216596 0.237605
132 2 0.643312 0.269148 0.234265
133 1 0.230048 0.52331 0.793126
134 2 0.236562 0.544078 0.778693
135 2 0.232385 0.51972 0.825337
136 1 0.263702 0.481183 0.760924
137 2 0.255155 0.473936 0.745213
138 2 0.263717 0.513381 0.769551
139 1 0.361256 0.733779 0.174709
140 2 0.364146 0.725886 0.205627
141 2 0.351521 0.727049 0.171126
142 1 0.34454 0.502232 0.876402
143 2 0.34853 0.522564 0.853578
144 2 0.35062 0.500403 0.902805
145 1 0.22245 0.521407 0.509478
146 2 0.230748 0.503659 0.503894
147 2 0.224941 0.551694 0.520654
148 1 0.31932 0.539956 0.640095
149 2 0.315828 0.512538 0.655057
150 2 0.326424 0.553762 0.659065
151 1 0.86853 0.535775 0.219954
152 2 0.870087 0.567938 0.227003
153 2 0.864696 0.520469 0.246666
154 1 0.342848 0.750766 0.25719
155 2 0.349914 0.729791 0.267979
156 2 0.346634 0.770313 0.233319
157 1 0.889031 0.757215 0.554308
158 2 0.879937 0.759728 0.56794
159 2 0.888595 0.73736 0.527573
160 1 0.819105 0.200496 0.400153
161 2 0.823587 0.187199 0.426818
162 2 0.809717 0.189185 0.398157
163 1 0.590955 0.330414 0.28804
164 2 0.582604 0.332052 0.3063
165 2 0.588933 0.315935 0.258782
166 1 0.299988 0.367888 0.645102
167 2 0.290245 0.360477 0.646295
168 2 0.305149 0.340948 0.635646
169 1 0.00476547 0.0282137 0.897256
170 2 0.00569331 0.0211289 0.864831
171 2 0.0138437 0.0311851 0.910915
172 1 0.153308 0.298151 0.70031
173 2 0.159807 0.323399 0.702386
174 2 0.151361 0.286537 0.730873
175 1 0.562357 0.334493 0.311954
176 2 0.553637 0.324922 0.298741
177 2 0.560768 0.359091 0.333817
178 1 0.356617 0.63692 0.230573
179 2 0.359529 0.607591 0.218055
180 2 0.347743 0.645264 0.217673
181 1 0.194083 0.496591 0.631998
182 2 0.191906 0.464843 0.624887
183 2 0.187124 0.516526 0.618746
184 1 0.558284 0.0578605 0.728001
185 2 0.551038 0.0450274 0.708949
186 2 0.564911 0.0340429 0.735477
187 1 0.837363 0.582216 0.166122
188 2 0.846117 0.570964 0.154589
189 2 0.831766 0.556474 0.176143
190 1 0.330165 0.456302 0.394878
191 2 0.338549 0.451374 0.412365
192 2 0.323437 0.471937 0.413947
193 1 0.863296 0.553753 0.130426
194 2 0.865317 0.542681 0.161136
195 2 0.866695 0.53186 0.107988
196 1 0.236739 0.594463 0.684308
197 2 0.227163 0.586016 0.688872
198 2 0.237632 0.611751 0.655963
199 1 0.192801 0.411285 0.610076
200 2 0.199349 0.417505 0.585662
201 2 0.185562 0.391359 0.598597
202 1 0.188724 0.449289 0.793621
203 2 0.190239 0.451673 0.826483
204 2 0.179008 0.453592 0.787017
205 1 0.525427 0.400346 0.236642
206 2 0.518004 0.404746 0.214746
207 2 0.530421 0.428968 0.240498
208 1 0.793623 0.17039 0.373728
209 2 0.795714 0.180137 0.342623
210 2 0.785094 0.152987 0.37381
211 1 0.460328 0.623646 0.936816
212 2 0.454263 0.639901 0.915882
213 2 0.465719 0.645657 0.954241
214 1 0.35573 0.371513 0.226909
215 2 0.354088 0.348708 0.250597
216 2 0.355116 0.357097 0.196924
217 1 0.253432 0.575491 0.747484
218 2 0.24623 0.578648 0.724573
219 2 0.259731 0.601279 0.745204
220 1 0.900362 0.769394 0.642385
221 2 0.90562 0.741429 0.637696
222 2 0.89564 0.777508 0.614145
223 1 0.195053 0.399503 0.700024
224 2 0.200828 0.421354 0.716245
225 2 0.196992 0.401107 0.667363
226 1 0.323139 0.459334 0.897911
227 2 0.319315 0.440939 0.873207
228 2 0.331015 0.476471 0.886596
229 1 0.866374 0.812842 0.676964
230 2 0.860299 0.836962 0.687884
231 2 0.869887 0.795554 0.702948
232 1 0.454304 0.539469 0.756724
233 2 0.453998 0.513966 0.778164
234 2 0.460267 0.531678 0.731125
235 1 0.340229 0.403024 0.330344
236 2 0.332835 0.411291 0.351207
237 2 0.337165 0.407158 0.298885
238 1 0.16307 0.369138 0.606915
239 2 0.155903 0.386255 0.591185
240 2 0.16206 0.336656 0.600225
241 1 0.960618 0.0904439 0.904162
242 2 0.95447 0.09172 0.877905
243 2 0.957162 0.0682275 0.92618
244 1 0.211805 0.4749 0.749998
245 2 0.217976 0.488421 0.772475
246 2 0.203082 0.467558 0.764547
247 1 0.302598 0.729761 0.155402
248 2 0.293685 0.742617 0.147456
249 2 0.301538 0.708515 0.180843
250 1 0.855475 0.516919 0.301946
251 2 0.850313 0.488584 0.305442
252 2 0.849449 0.542894 0.307696
253 1 0.250484 0.522967 0.576707
254 2 0.258386 0.529906 0.595922
255 2 0.242771 0.513971 0.595922
256 1 0.443774 0.658347 0.879438
257 2 0.447077 0.646092 0.850461
258 2 0.434349 0.66889 0.875821
259 1 0.230834 0.383793 0.49824
260 2 0.23635 0.410588 0.490816
261 2 0.236762 0.357047 0.500531
262 1 0.21034 0.204031 0.153919
263 2 0.208957 0.234027 0.167707
264 2 0.219857 0.194665 0.158035
265 1 0.807927 0.193431 0.301359
266 2 0.813271 0.194034 0.273192
267 2 0.813589 0.204115 0.326672
268 1 0.613151 0.32433 0.347045
269 2 0.60595 0.321267 0.324119
270 2 0.620508 0.30275 0.340408
271 1 0.879615 0.76475 0.738594
272 2 0.889562 0.768098 0.739322
273 2 0.877269 0.733175 0.731317
274 1 0.844588 0.597031 0.308653
275 2 0.840506 0.625462 0.3195
276 2 0.851851 0.603928 0.286803
277 1 0.897814 0.647417 0.240589
278 2 0.896123 0.631635 0.269403
279 2 0.889117 0.652941 0.225089
280 1 0.368739 0.707286 0.266334
281 2 0.378534 0.712703 0.262381
282 2 0.366591 0.675861 0.257827
283 1 0.308123 0.499357 0.563389
284 2 0.312065 0.518267 0.587489
285 2 0.298974 0.489412 0.572456
286 1 0.998729 0.119428 0.0263234
287 2 0.993591 0.110279 -0.000770535
288 2 0.994507 0.146498 0.0397486
289 1 0.363278 0.399606 0.391439
290 2 0.367517 0.403934 0.361561
291 2 0.353447 0.405272 0.389157
292 1 0.159344 0.312786 0.791458
293 2 0.160189 0.283415 0.806966
294 2 0.168447 0.325576 0.786287
295 1 0.227851 0.473909 0.627182
296 2 0.222681 0.465515 0.599912
297 2 0.222756 0.496814 0.644445
298 1 0.352752 0.320516 0.304256
299 2 0.355917 0.301637 0.329621
300 2 0.350041 0.350484 0.315718
ITEM: TIMESTEP
9000
ITEM: NUMBER OF ATOMS
300
ITEM: BOX BOUNDS pp ff pp
0.0000000000000000e+00 1.0000000000000000e+02
0.0000000000000000e+00 3.0000000000000000e+01
0.0000000000000000e+00 3.0000000000000000e+01
ITEM: ATOMS id type xs ys zs
1 1 0.328077 0.677581 0.185762
2 2 0.324938 0.687607 0.21578
3 2 0.320647 0.680867 0.163694
4 1 0.631284 0.248497 0.342478
5 2 0.632202 0.219962 0.359434
6 2 0.633482 0.243197 0.310395
7 1 0.0261744 0.0121039 0.95356
8 2 0.0359398 0.00781074 0.959313
9 2 0.0218117 0.0246295 0.980813
10 1 0.540434 0.328289 0.264438
11 2 0.535544 0.354127 0.251105
12 2 0.534755 0.300933 0.26235
13 1 0.866206 0.653 0.259372
14 2 0.875414 0.664497 0.265437
15 2 0.860643 0.677304 0.246084
16 1 0.277567 0.43924 0.706617
17 2 0.277167 0.406491 0.700549
18 2 0.270438 0.447462 0.728498
19 1 0.267085 0.354641 0.663204
20 2 0.261626 0.327419 0.669438
21 2 0.266196 0.362862 0.631037
22 1 0.170565 0.40264 0.68072
23 2 0.176138 0.375694 0.687036
24 2 0.165516 0.398121 0.652304
25 1 0.323431 0.711717 0.267511
26 2 0.316817 0.734343 0.278143
27 2 0.332703 0.723448 0.271802
28 1 0.554299 0.461872 0.328904
29 2 0.564225 0.461076 0.324949
30 2 0.551992 0.452801 0.360044
31 1 0.564082 0.397209 0.399475
32 2 0.563598 0.39063 0.432113
33 2 0.571895 0.417117 0.39343
34 1 0.166636 0.428606 0.776086
35 2 0.163314 0.426816 0.744696
36 2 0.171605 0.40068 0.783634
37 1 0.263783 0.376396 0.562735
38 2 0.271385 0.392959 0.548778
39 2 0.255271 0.393118 0.557602
40 1 0.304715 0.451303 0.483726
41 2 0.304467 0.473149 0.508889
42 2 0.309318 0.465091 0.457542
43 1 0.129587 0.389467 0.586729
44 2 0.137796 0.407857 0.581811
45 2 0.12292 0.407081 0.604249
46 1 0.548605 0.430916 0.247899
47 2 0.557597 0.429948 0.23335
48 2 0.549388 0.445481 0.277768
49 1 0.569329 0.376242 0.216258
50 2 0.564073 0.365394 0.190058
51 2 0.565904 0.361762 0.244025
52 1 0.907208 0.75419 0.724434
53 2 0.906019 0.775057 0.698745
54 2 0.913132 0.728939 0.715293
55 1 0.776817 0.647415 0.000802324
56 2 0.774185 0.676208 0.0151245
57 2 0.783146 0.631053 0.02076
58 1 0.267262 0.515979 0.653678
59 2 0.272107 0.495855 0.67478
60 2 0.263491 0.541893 0.67046
61 1 0.234494 0.442322 0.71798
62 2 0.225529 0.449353 0.730966
63 2 0.234152 0.445965 0.684866
64 1 0.279447 0.432625 0.515853
65 2 0.288191 0.435152 0.49988
66 2 0.27993 0.449372 0.544629
67 1 0.369006 0.529874 0.24143
68 2 0.375597 0.554417 0.236325
69 2 0.3725 0.501598 0.228168
70 1 0.849573 0.678192 0.187349
71 2 0.852285 0.69696 0.161326
72 2 0.849072 0.646251 0.177964
73 1 0.986518 0.0909847 0.930349
74 2 0.981364 0.102224 0.904087
75 2 0.994177 0.0723434 0.919772
76 1 0.854148 0.798199 0.584803
77 2 0.846816 0.777037 0.576687
78 2 0.857122 0.792262 0.61607
79 1 0.211595 0.452038 0.563682
80 2 0.210527 0.48189 0.549285
81 2 0.217592 0.433004 0.544993
82 1 0.599041 0.394975 0.362219
83 2 0.606522 0.379591 0.378109
84 2 0.594432 0.373323 0.342062
85 1 0.284082 0.472716 0.59829
86 2 0.286186 0.446011 0.616964
87 2 0.279324 0.495405 0.61686
88 1 0.462072 0.622465 0.799332
89 2 0.468773 0.639701 0.781584
90 2 0.458065 0.598628 0.780239
91 1 0.383765 0.448458 0.240379
92 2 0.378812 0.423473 0.225742
93 2 0.391236 0.436063 0.258746
94 1 0.449179 0.491428 0.799634
95 2 0.451235 0.516585 0.820401
96 2 0.450999 0.462435 0.814923
97 1 0.582282 0.47098 0.366394
98 2 0.589646 0.448854 0.362036
99 2 0.58579 0.501739 0.361076
100 1 0.183719 0.311594 0.739814
101 2 0.189489 0.336685 0.750375
102 2 0.188842 0.292847 0.718179
103 1 0.306138 0.419597 0.685736
104 2 0.298707 0.413165 0.707093
105 2 0.305447 0.399099 0.659552
106 1 0.251598 0.468037 0.494829
107 2 0.251346 0.486468 0.52259
108 2 0.26079 0.455583 0.490686
109 1 0.210988 0.542218 0.68626
110 2 0.20267 0.524977 0.679549
111 2 0.214072 0.535139 0.717168
112 1 0.3567 0.480557 0.954588
113 2 0.348188 0.465074 0.96273
114 2 0.364397 0.465214 0.969334
115 1 0.458164 0.553127 0.857717
116 2 0.461292 0.579577 0.840315
117 2 0.459807 0.558327 0.890184
118 1 0.332905 0.435985 0.968066
119 2 0.327807 0.409811 0.979782
120 2 0.328294 0.448016 0.941044
121 1 0.0181537 0.0485426 0.0293648
122 2 0.0131418 0.0773845 0.0289746
123 2 0.0228702 0.0452038 0.0585675
124 1 0.160205 0.280598 0.61
125 2 0.158126 0.248141 0.60691
126 2 0.160242 0.288909 0.642281
127 1 0.870698 0.775437 0.501538
128 2 0.872659 0.784796 0.47022
129 2 0.861591 0.786126 0.510222
130 1 0.640095 0.227241 0.256091
131 2 0.639467 0.207464 0.229341
132 2 0.645802 0.253656 0.248918
133 1 0.233198 0.532469 0.808219
134 2 0.236582 0.54108 0.778057
135 2 0.239453 0.510417 0.822001
136 1 0.256167 0.494326 0.748441
137 2 0.2485 0.476276 0.736944
138 2 0.25366 0.526595 0.748566
139 1 0.345108 0.747425 0.161956
140 2 0.354204 0.733575 0.162245
141 2 0.338304 0.724701 0.170914
142 1 0.351457 0.513546 0.872654
143 2 0.357661 0.538452 0.864702
144 2 0.354414 0.49964 0.901301
145 1 0.224279 0.537825 0.545106
146 2 0.233804 0.5295 0.550914
147 2 0.223939 0.562012 0.522197
148 1 0.311932 0.502504 0.656885
149 2 0.313439 0.469951 0.661999
150 2 0.303819 0.51235 0.673706
151 1 0.870719 0.558929 0.221224
152 2 0.869053 0.589234 0.233947
153 2 0.868806 0.535817 0.244382
154 1 0.349101 0.751681 0.273561
155 2 0.355884 0.730392 0.261453
156 2 0.345308 0.769832 0.248625
157 1 0.889829 0.747622 0.566859
158 2 0.885562 0.760611 0.539655
159 2 0.882741 0.739253 0.588831
160 1 0.824708 0.203175 0.380312
161 2 0.832378 0.220566 0.392763
162 2 0.817587 0.200157 0.40352
163 1 0.589288 0.331727 0.295839
164 2 0.580071 0.322664 0.30506
165 2 0.588786 0.349859 0.267918
166 1 0.295172 0.36062 0.628166
167 2 0.287323 0.349246 0.645407
168 2 0.29857 0.336596 0.608025
169 1 0.00526339 0.0219936 0.886988
170 2 0.007692 0.0015671 0.861922
171 2 0.0107271 0.0143805 0.913848
172 1 0.156395 0.313172 0.690652
173 2 0.153439 0.344966 0.688872
174 2 0.15637 0.303281 0.722485
175 1 0.563425 0.350249 0.307512
176 2 0.554811 0.339835 0.294163
177 2 0.561528 0.372604 0.331416
178 1 0.349361 0.631276 0.208022
179 2 0.345745 0.603284 0.221523
180 2 0.341776 0.650833 0.198565
181 1 0.189224 0.468456 0.659796
182 2 0.193666 0.439659 0.651884
183 2 0.181031 0.462303 0.67789
184 1 0.545816 0.0607124 0.747721
185 2 0.552298 0.0375064 0.737439
186 2 0.549503 0.0910036 0.741203
187 1 0.845119 0.587206 0.159004
188 2 0.852492 0.572904 0.141612
189 2 0.837326 0.566387 0.160709
190 1 0.331096 0.461697 0.42644
191 2 0.336928 0.434954 0.430692
192 2 0.33233 0.48261 0.452069
193 1 0.867523 0.529596 0.136571
194 2 0.868969 0.541844 0.167196
195 2 0.86949 0.496914 0.136518
196 1 0.234659 0.585139 0.663461
197 2 0.22576 0.570825 0.66859
198 2 0.233754 0.608991 0.640372
199 1 0.203086 0.391911 0.631394
200 2 0.205669 0.41224 0.60642
201 2 0.202229 0.36076 0.61988
202 1 0.188946 0.473763 0.800621
203 2 0.185275 0.504319 0.805891
204 2 0.18243 0.456061 0.782563
205 1 0.52414 0.39461 0.231541
206 2 0.519538 0.41936 0.215316
207 2 0.532534 0.406146 0.245508
208 1 0.794366 0.1943 0.396691
209 2 0.796591 0.1905 0.364415
210 2 0.784437 0.193758 0.400626
211 1 0.463232 0.589836 0.945224
212 2 0.461044 0.62154 0.937959
213 2 0.469206 0.588858 0.971937
214 1 0.362721 0.368461 0.234885
215 2 0.359619 0.350885 0.261254
216 2 0.354798 0.380698 0.21864
217 1 0.250817 0.579303 0.744717
218 2 0.245753 0.580344 0.715991
219 2 0.255786 0.607923 0.748913
220 1 0.905748 0.787164 0.639152
221 2 0.900873 0.769329 0.616153
222 2 0.911663 0.809412 0.624073
223 1 0.201806 0.387144 0.721406
224 2 0.209076 0.407564 0.731744
225 2 0.202871 0.381317 0.688778
226 1 0.325796 0.472784 0.888422
227 2 0.31963 0.487575 0.866746
228 2 0.335066 0.484579 0.884257
229 1 0.870996 0.788691 0.663808
230 2 0.875787 0.8126 0.64694
231 2 0.874766 0.786539 0.694607
232 1 0.451178 0.55595 0.739172
233 2 0.450427 0.534101 0.764221
234 2 0.45061 0.539774 0.710088
235 1 0.331864 0.397253 0.339009
236 2 0.325434 0.403401 0.363787
237 2 0.336574 0.425445 0.330647
238 1 0.156167 0.371202 0.611478
239 2 0.146244 0.373774 0.608231
240 2 0.159133 0.341137 0.601016
241 1 0.959126 0.0882905 0.87183
242 2 0.958475 0.0621232 0.851295
243 2 0.949936 0.0982095 0.880459
244 1 0.213539 0.480678 0.757152
245 2 0.219497 0.496653 0.778632
246 2 0.204334 0.47839 0.769981
247 1 0.309866 0.719799 0.11252
248 2 0.307656 0.695845 0.0905423
249 2 0.311381 0.74852 0.0963732
250 1 0.846369 0.514505 0.301646
251 2 0.837463 0.506588 0.314577
252 2 0.849045 0.54488 0.312082
253 1 0.247345 0.507756 0.572932
254 2 0.254169 0.518544 0.594778
255 2 0.239442 0.495653 0.589385
256 1 0.455101 0.668598 0.894298
257 2 0.454982 0.658455 0.862548
258 2 0.452477 0.700729 0.895807
259 1 0.227972 0.414913 0.491483
260 2 0.234137 0.441152 0.490849
261 2 0.230925 0.392545 0.468813
262 1 0.220325 0.213072 0.132603
263 2 0.225731 0.18503 0.132798
264 2 0.211214 0.206847 0.144852
265 1 0.803823 0.190444 0.312697
266 2 0.805371 0.179984 0.281471
267 2 0.812621 0.195179 0.327816
268 1 0.617616 0.328032 0.35933
269 2 0.609584 0.326946 0.339502
270 2 0.623078 0.300456 0.354937
271 1 0.882456 0.765256 0.751962
272 2 0.892256 0.764861 0.745348
273 2 0.880818 0.751471 0.781816
274 1 0.848487 0.60766 0.306262
275 2 0.84146 0.620463 0.286296
276 2 0.857475 0.618807 0.296813
277 1 0.893932 0.669708 0.257416
278 2 0.891518 0.638624 0.248463
279 2 0.901492 0.680552 0.23848
280 1 0.366778 0.693052 0.238776
281 2 0.375895 0.68136 0.245908
282 2 0.361303 0.668841 0.224926
283 1 0.307286 0.500732 0.5599
284 2 0.313975 0.506129 0.584085
285 2 0.29951 0.483808 0.57226
286 1 0.000378417 0.1194 0.00392397
287 2 0.995056 0.106222 0.978971
288 2 1.00094 0.152447 0.999982
289 1 0.36013 0.385586 0.405651
290 2 0.369719 0.393757 0.40089
291 2 0.357532 0.361614 0.38417
292 1 0.162573 0.307221 0.782945
293 2 0.16129 0.280164 0.801938
294 2 0.171541 0.30588 0.768264
295 1 0.226804 0.48329 0.635962
296 2 0.219671 0.471832 0.615604
297 2 0.22397 0.512616 0.648684
298 1 0.349686 0.331627 0.308342
299 2 0.344357 0.303671 0.312083
300 2 0.343702 0.35806 0.312155
ITEM: TIMESTEP
9100
ITEM: NUMBER OF ATOMS
300
ITEM: BOX BOUNDS pp ff pp
0.0000000000000000e+00 1.0000000000000000e+02
0.0000000000000000e+00 3.0000000000000000e+01
0.0000000000000000e+00 3.0000000000000000e+01
ITEM: ATOMS id type xs ys zs
1 1 0.320824 0.654867 0.224071
2 2 0.320412 0.680588 0.245229
3 2 0.313953 0.65889 0.200189
4 1 0.625701 0.244412 0.342495
5 2 0.628155 0.225946 0.369014
6 2 0.628698 0.228968 0.314695
7 1 0.0233957 0.0229912 0.952079
8 2 0.0303637 0.046891 0.952734
9 2 0.0201077 0.0172981 0.98304
10 1 0.538692 0.307339 0.290824
11 2 0.535635 0.324959 0.264428
12 2 0.536201 0.275322 0.286689
13 1 0.87141 0.651653 0.266599
14 2 0.879909 0.669169 0.267906
15 2 0.865183 0.665719 0.244633
16 1 0.2689 0.450373 0.688883
17 2 0.266859 0.417756 0.687925
18 2 0.265761 0.463059 0.717878
19 1 0.265114 0.356571 0.670922
20 2 0.258062 0.337901 0.685409
21 2 0.26182 0.367261 0.64132
22 1 0.17026 0.385521 0.683332
23 2 0.169775 0.352233 0.682653
24 2 0.163387 0.398179 0.662691
25 1 0.323128 0.732403 0.273005
26 2 0.321395 0.724822 0.304946
27 2 0.332174 0.746333 0.270171
28 1 0.548528 0.460908 0.342998
29 2 0.556896 0.474478 0.3552
30 2 0.545832 0.435022 0.361979
31 1 0.567992 0.393324 0.377587
32 2 0.576285 0.375665 0.383512
33 2 0.570238 0.41962 0.358518
34 1 0.177343 0.41157 0.774785
35 2 0.181689 0.386636 0.791505
36 2 0.172603 0.399349 0.7481
37 1 0.260125 0.383349 0.568653
38 2 0.254375 0.409857 0.562242
39 2 0.265956 0.377063 0.542313
40 1 0.306362 0.459655 0.490698
41 2 0.305004 0.473901 0.520492
42 2 0.309636 0.428434 0.494854
43 1 0.12916 0.44709 0.579434
44 2 0.135832 0.451113 0.554934
45 2 0.121968 0.470072 0.576562
46 1 0.549989 0.446384 0.254105
47 2 0.559666 0.452588 0.248437
48 2 0.548231 0.447137 0.28691
49 1 0.574851 0.382352 0.244228
50 2 0.570363 0.377709 0.214805
51 2 0.569213 0.369249 0.268439
52 1 0.904901 0.746025 0.71153
53 2 0.908513 0.759751 0.683642
54 2 0.907183 0.713577 0.712125
55 1 0.78267 0.647418 0.99966
56 2 0.776519 0.667486 0.0166269
57 2 0.791574 0.646485 0.0148036
58 1 0.265183 0.541349 0.661685
59 2 0.26612 0.509615 0.671396
60 2 0.266694 0.561495 0.68776
61 1 0.237987 0.424295 0.729159
62 2 0.228925 0.430084 0.742013
63 2 0.238912 0.440597 0.700248
64 1 0.278502 0.44269 0.513385
65 2 0.285783 0.454918 0.494086
66 2 0.280947 0.446813 0.545442
67 1 0.361623 0.53726 0.210582
68 2 0.357869 0.507097 0.203894
69 2 0.371054 0.534139 0.221218
70 1 0.854052 0.689761 0.176788
71 2 0.854942 0.707091 0.148469
72 2 0.850854 0.658941 0.169889
73 1 0.983894 0.0845621 0.914884
74 2 0.975896 0.0775355 0.896149
75 2 0.990617 0.0600587 0.911955
76 1 0.859968 0.821193 0.583361
77 2 0.851185 0.826004 0.598556
78 2 0.865981 0.803449 0.603222
79 1 0.216966 0.45878 0.559069
80 2 0.214388 0.490547 0.553766
81 2 0.220552 0.445646 0.530861
82 1 0.598359 0.402782 0.370151
83 2 0.60544 0.388567 0.388909
84 2 0.596424 0.383383 0.343822
85 1 0.286535 0.436295 0.602364
86 2 0.286416 0.407897 0.619815
87 2 0.280375 0.458366 0.616589
88 1 0.466594 0.606087 0.807319
89 2 0.475102 0.608454 0.789966
90 2 0.458839 0.605168 0.786291
91 1 0.37902 0.459801 0.251305
92 2 0.374871 0.43525 0.233497
93 2 0.384365 0.446742 0.276269
94 1 0.440584 0.512732 0.781385
95 2 0.447421 0.514797 0.805623
96 2 0.434814 0.485986 0.786468
97 1 0.579254 0.46622 0.345944
98 2 0.587354 0.449741 0.35646
99 2 0.582034 0.490729 0.325339
100 1 0.186119 0.307254 0.719405
101 2 0.191777 0.334737 0.719018
102 2 0.183628 0.299037 0.688186
103 1 0.297572 0.41094 0.70442
104 2 0.288476 0.414219 0.717875
105 2 0.297611 0.384977 0.683515
106 1 0.250224 0.452965 0.512114
107 2 0.247679 0.476044 0.534619
108 2 0.260168 0.452532 0.508597
109 1 0.209544 0.515425 0.669689
110 2 0.204543 0.530823 0.645272
111 2 0.203046 0.501902 0.691115
112 1 0.353562 0.480651 0.96097
113 2 0.348732 0.45517 0.946733
114 2 0.357151 0.471087 0.990576
115 1 0.455625 0.531712 0.857992
116 2 0.461116 0.554564 0.842061
117 2 0.458781 0.529054 0.889511
118 1 0.337593 0.413667 0.914087
119 2 0.342655 0.395994 0.891415
120 2 0.331154 0.433955 0.898632
121 1 0.0154296 0.0543337 0.0433418
122 2 0.0119455 0.0787218 0.0238112
123 2 0.00778699 0.0394 0.0588048
124 1 0.174441 0.287214 0.643374
125 2 0.17564 0.286987 0.610281
126 2 0.164834 0.281611 0.650738
127 1 0.868326 0.75031 0.514636
128 2 0.858726 0.750423 0.505298
129 2 0.871101 0.781229 0.522974
130 1 0.637717 0.203729 0.27178
131 2 0.643725 0.179559 0.260564
132 2 0.633844 0.220349 0.24593
133 1 0.229971 0.534859 0.791675
134 2 0.230282 0.567746 0.797011
135 2 0.228316 0.519091 0.82052
136 1 0.255795 0.488095 0.76789
137 2 0.249635 0.464992 0.755411
138 2 0.250684 0.516167 0.773628
139 1 0.337891 0.729086 0.167997
140 2 0.335742 0.743018 0.19742
141 2 0.343662 0.702287 0.172781
142 1 0.353409 0.518246 0.866701
143 2 0.361293 0.538712 0.867978
144 2 0.351145 0.50792 0.897483
145 1 0.222724 0.56416 0.545168
146 2 0.229235 0.53963 0.551351
147 2 0.22598 0.592393 0.559175
148 1 0.30926 0.490127 0.675588
149 2 0.30472 0.461002 0.681401
150 2 0.307266 0.511266 0.70049
151 1 0.870912 0.561243 0.25409
152 2 0.872399 0.593803 0.259232
153 2 0.863054 0.551027 0.272
154 1 0.348819 0.764369 0.266377
155 2 0.354147 0.742459 0.248611
156 2 0.354907 0.781146 0.286819
157 1 0.894316 0.749432 0.581122
158 2 0.893706 0.732893 0.552252
159 2 0.885652 0.746712 0.597543
160 1 0.823219 0.214568 0.360329
161 2 0.831066 0.233438 0.368752
162 2 0.816492 0.215018 0.384988
163 1 0.59351 0.340532 0.295002
164 2 0.586105 0.320078 0.30414
165 2 0.590912 0.356636 0.267131
166 1 0.291754 0.348977 0.636936
167 2 0.284302 0.33564 0.654721
168 2 0.29389 0.329093 0.611148
169 1 0.00440533 0.0350399 0.883216
170 2 0.00768388 0.0413644 0.852367
171 2 0.0120204 0.024435 0.902039
172 1 0.147685 0.294379 0.681497
173 2 0.138209 0.304726 0.684036
174 2 0.150839 0.283401 0.711163
175 1 0.562465 0.339386 0.309129
176 2 0.553625 0.32454 0.304376
177 2 0.561672 0.361694 0.333756
178 1 0.345071 0.632418 0.192418
179 2 0.34899 0.602233 0.197832
180 2 0.33532 0.631945 0.199803
181 1 0.185567 0.466508 0.695876
182 2 0.188639 0.453958 0.666742
183 2 0.178151 0.447716 0.707994
184 1 0.534232 0.0668749 0.76902
185 2 0.524835 0.0651671 0.757757
186 2 0.540586 0.0638915 0.743452
187 1 0.846685 0.610031 0.139038
188 2 0.852614 0.588922 0.15562
189 2 0.840633 0.592822 0.118841
190 1 0.336434 0.443073 0.420327
191 2 0.344443 0.435518 0.438801
192 2 0.328908 0.452233 0.440277
193 1 0.86585 0.549842 0.161438
194 2 0.866091 0.547754 0.194696
195 2 0.870396 0.523234 0.148267
196 1 0.234988 0.567805 0.68636
197 2 0.22531 0.564932 0.694244
198 2 0.238647 0.537833 0.678356
199 1 0.198552 0.427573 0.627755
200 2 0.204373 0.438132 0.602791
201 2 0.191055 0.409278 0.61543
202 1 0.186248 0.497466 0.799466
203 2 0.182613 0.506284 0.769691
204 2 0.186793 0.464234 0.801324
205 1 0.533009 0.379159 0.23665
206 2 0.524985 0.398561 0.241025
207 2 0.541224 0.398122 0.23531
208 1 0.802089 0.217548 0.411787
209 2 0.799479 0.203108 0.383031
210 2 0.793905 0.228851 0.427246
211 1 0.463864 0.580812 0.93849
212 2 0.467994 0.607218 0.923511
213 2 0.456984 0.591147 0.96036
214 1 0.376519 0.349096 0.269883
215 2 0.366612 0.350214 0.27428
216 2 0.379826 0.318297 0.276288
217 1 0.256276 0.606352 0.725734
218 2 0.249066 0.590275 0.709151
219 2 0.252689 0.635175 0.737454
220 1 0.915286 0.783048 0.63415
221 2 0.907707 0.785821 0.61258
222 2 0.916467 0.811875 0.650416
223 1 0.20417 0.378365 0.725151
224 2 0.203532 0.410925 0.731965
225 2 0.21333 0.371371 0.713756
226 1 0.329272 0.474521 0.855757
227 2 0.321009 0.493293 0.855316
228 2 0.337303 0.493981 0.851798
229 1 0.869043 0.746912 0.633112
230 2 0.870092 0.755465 0.665139
231 2 0.864657 0.717021 0.631128
232 1 0.446057 0.59689 0.742962
233 2 0.444466 0.569838 0.761702
234 2 0.443261 0.59066 0.71157
235 1 0.332871 0.380922 0.349003
236 2 0.325186 0.366008 0.364253
237 2 0.334188 0.41136 0.361861
238 1 0.150953 0.395534 0.60235
239 2 0.143875 0.419018 0.604059
240 2 0.147059 0.367659 0.58948
241 1 0.964936 0.0810271 0.858481
242 2 0.967848 0.061781 0.833055
243 2 0.958658 0.104454 0.847325
244 1 0.212484 0.465623 0.764144
245 2 0.218056 0.491954 0.772675
246 2 0.20297 0.471121 0.772812
247 1 0.32445 0.711297 0.0913003
248 2 0.330072 0.685015 0.0829812
249 2 0.327789 0.724264 0.119921
250 1 0.844771 0.534001 0.302406
251 2 0.835947 0.523995 0.290331
252 2 0.845393 0.567216 0.300513
253 1 0.245213 0.515309 0.585761
254 2 0.252233 0.530701 0.603837
255 2 0.239192 0.498011 0.605985
256 1 0.469356 0.659952 0.895209
257 2 0.466724 0.647137 0.865714
258 2 0.476262 0.68362 0.890634
259 1 0.225189 0.437493 0.478292
260 2 0.234695 0.442835 0.487163
261 2 0.224682 0.410457 0.458868
262 1 0.229812 0.215281 0.111426
263 2 0.2221 0.236035 0.115848
264 2 0.237315 0.231577 0.0965965
265 1 0.800297 0.183581 0.331129
266 2 0.797373 0.177484 0.299841
267 2 0.809802 0.193947 0.331076
268 1 0.614469 0.326063 0.352997
269 2 0.6094 0.329564 0.324478
270 2 0.618264 0.295271 0.354707
271 1 0.878479 0.782482 0.725736
272 2 0.887665 0.769443 0.727625
273 2 0.878268 0.811591 0.741962
274 1 0.8481 0.620805 0.309462
275 2 0.845044 0.647257 0.327001
276 2 0.856628 0.628198 0.293706
277 1 0.89394 0.698051 0.258472
278 2 0.891553 0.726167 0.242432
279 2 0.903866 0.694035 0.258106
280 1 0.362122 0.702127 0.214373
281 2 0.365887 0.70305 0.183505
282 2 0.356774 0.674235 0.218289
283 1 0.305788 0.490454 0.575065
284 2 0.310778 0.502269 0.601425
285 2 0.297698 0.473855 0.585473
286 1 -0.000112817 0.109501 0.984165
287 2 0.99345 0.0946713 0.96341
288 2 0.00256788 0.139072 0.971641
289 1 0.363423 0.384058 0.408196
290 2 0.357493 0.36377 0.425768
291 2 0.362344 0.377658 0.375681
292 1 0.158246 0.292887 0.765148
293 2 0.166911 0.288046 0.749225
294 2 0.159994 0.297073 0.7977
295 1 0.230523 0.455767 0.642882
296 2 0.229371 0.440494 0.613503
297 2 0.221723 0.467962 0.65298
298 1 0.34799 0.347888 0.273718
299 2 0.343319 0.351168 0.244428
300 2 0.341685 0.355632 0.298403
ITEM: TIMESTEP
9200
ITEM: NUMBER OF ATOMS
300
ITEM: BOX BOUNDS pp ff pp
0.0000000000000000e+00 1.0000000000000000e+02
0.0000000000000000e+00 3.0000000000000000e+01
0.0000000000000000e+00 3.0000000000000000e+01
ITEM: ATOMS id type xs ys zs
1 1 0.32824 0.640246 0.269119
2 2 0.325895 0.672595 0.267233
3 2 0.32523 0.628086 0.298489
4 1 0.620561 0.231519 0.357703
5 2 0.621804 0.211571 0.384086
6 2 0.625596 0.219161 0.331689
7 1 0.0242935 0.0301144 0.948228
8 2 0.0321217 0.0498169 0.941745
9 2 0.0201895 0.0389992 0.977297
10 1 0.540294 0.291739 0.299121
11 2 0.539999 0.32337 0.28865
12 2 0.533137 0.274215 0.283797
13 1 0.870598 0.654198 0.27982
14 2 0.878418 0.674972 0.27966
15 2 0.86591 0.655755 0.250418
16 1 0.272245 0.463452 0.68898
17 2 0.264452 0.448613 0.674277
18 2 0.269324 0.476743 0.717957
19 1 0.263342 0.344462 0.666499
20 2 0.256213 0.339348 0.689306
21 2 0.259125 0.348832 0.636592
22 1 0.158098 0.391326 0.69808
23 2 0.163726 0.364233 0.693069
24 2 0.153028 0.398439 0.670243
25 1 0.32277 0.72657 0.252191
26 2 0.3164 0.745674 0.235008
27 2 0.33149 0.742533 0.255576
28 1 0.551037 0.471964 0.349847
29 2 0.561025 0.470337 0.349832
30 2 0.547285 0.44362 0.362151
31 1 0.56706 0.377282 0.377947
32 2 0.569154 0.371277 0.409984
33 2 0.570993 0.406604 0.369028
34 1 0.175285 0.4206 0.766112
35 2 0.180102 0.392131 0.772652
36 2 0.167321 0.414241 0.746981
37 1 0.256781 0.367803 0.572493
38 2 0.248639 0.383045 0.560567
39 2 0.264913 0.385421 0.564376
40 1 0.305921 0.442669 0.489
41 2 0.307881 0.462452 0.51502
42 2 0.305649 0.410925 0.499129
43 1 0.135924 0.492004 0.582506
44 2 0.13663 0.476072 0.553321
45 2 0.134958 0.524733 0.577069
46 1 0.547858 0.44469 0.254082
47 2 0.557181 0.432919 0.251455
48 2 0.546531 0.457696 0.284453
49 1 0.571365 0.388478 0.246556
50 2 0.57217 0.378867 0.214751
51 2 0.570716 0.361592 0.266142
52 1 0.907769 0.756439 0.716827
53 2 0.912547 0.756981 0.687551
54 2 0.913722 0.74306 0.740028
55 1 0.7851 0.650279 0.989234
56 2 0.778358 0.67136 0.976522
57 2 0.794228 0.658685 0.97852
58 1 0.261877 0.550024 0.659355
59 2 0.267344 0.523482 0.66799
60 2 0.264306 0.575861 0.678797
61 1 0.240036 0.430817 0.703215
62 2 0.232477 0.430056 0.725022
63 2 0.236391 0.433355 0.672279
64 1 0.279515 0.440473 0.514353
65 2 0.287937 0.433106 0.497958
66 2 0.280855 0.435188 0.546961
67 1 0.35836 0.543124 0.191201
68 2 0.366098 0.529399 0.207245
69 2 0.3524 0.519062 0.179476
70 1 0.860005 0.693103 0.191898
71 2 0.861751 0.718947 0.171666
72 2 0.859977 0.664893 0.174141
73 1 0.98569 0.0883537 0.91004
74 2 0.978054 0.0824649 0.889335
75 2 0.993986 0.0742035 0.897956
76 1 0.869057 0.812306 0.584118
77 2 0.864839 0.840582 0.59479
78 2 0.866106 0.787013 0.603474
79 1 0.209938 0.469923 0.543984
80 2 0.213413 0.500197 0.551759
81 2 0.215076 0.457789 0.518089
82 1 0.602257 0.418507 0.353451
83 2 0.61057 0.417747 0.371966
84 2 0.602055 0.391911 0.333368
85 1 0.285575 0.425445 0.604594
86 2 0.287323 0.397387 0.621621
87 2 0.280847 0.447289 0.62423
88 1 0.470418 0.615494 0.78758
89 2 0.474044 0.603062 0.759112
90 2 0.460529 0.619578 0.784809
91 1 0.364364 0.447085 0.244216
92 2 0.37209 0.435963 0.262217
93 2 0.358973 0.421195 0.233355
94 1 0.431188 0.5358 0.790726
95 2 0.43856 0.542824 0.812126
96 2 0.423157 0.525321 0.807598
97 1 0.578627 0.466907 0.357596
98 2 0.587318 0.450577 0.355345
99 2 0.579754 0.497873 0.345842
100 1 0.185697 0.317652 0.749315
101 2 0.193332 0.322972 0.728458
102 2 0.177407 0.311388 0.731756
103 1 0.299355 0.429976 0.705433
104 2 0.290654 0.44506 0.698918
105 2 0.299654 0.400572 0.689763
106 1 0.251134 0.474252 0.510972
107 2 0.250797 0.482304 0.543298
108 2 0.260506 0.466184 0.50261
109 1 0.210667 0.540124 0.668718
110 2 0.205354 0.565961 0.657324
111 2 0.204468 0.517079 0.681088
112 1 0.356907 0.489615 0.971255
113 2 0.355351 0.460944 0.955062
114 2 0.357968 0.483494 0.00382974
115 1 0.450906 0.549382 0.853805
116 2 0.458857 0.562618 0.838523
117 2 0.452796 0.546429 0.886405
118 1 0.354825 0.406746 0.929509
119 2 0.363642 0.395674 0.918337
120 2 0.349513 0.418911 0.904022
121 1 0.0107309 0.0602596 0.0310727
122 2 0.00363053 0.0790418 0.0169952
123 2 0.00721359 0.0294443 0.0359783
124 1 0.167074 0.304482 0.683949
125 2 0.17626 0.304137 0.670781
126 2 0.162226 0.276661 0.675232
127 1 0.871949 0.768238 0.503567
128 2 0.86279 0.75598 0.498199
129 2 0.872335 0.781948 0.533923
130 1 0.631812 0.193271 0.284404
131 2 0.637913 0.209235 0.263366
132 2 0.62668 0.169976 0.267795
133 1 0.229543 0.527959 0.798822
134 2 0.228704 0.535072 0.766377
135 2 0.223477 0.547847 0.816339
136 1 0.251645 0.48155 0.770808
137 2 0.246332 0.45925 0.753481
138 2 0.245586 0.505724 0.781709
139 1 0.327597 0.697762 0.162127
140 2 0.327336 0.711656 0.192414
141 2 0.333823 0.67168 0.16246
142 1 0.355542 0.534472 0.885152
143 2 0.363932 0.552572 0.883968
144 2 0.354085 0.523549 0.916268
145 1 0.221859 0.552341 0.554612
146 2 0.231847 0.550671 0.554435
147 2 0.218975 0.583276 0.546757
148 1 0.316769 0.488029 0.665754
149 2 0.313275 0.46483 0.686665
150 2 0.315452 0.518247 0.679124
151 1 0.86804 0.571383 0.254185
152 2 0.872054 0.594965 0.273576
153 2 0.859441 0.560915 0.267597
154 1 0.345559 0.770796 0.24792
155 2 0.352975 0.754128 0.233009
156 2 0.349404 0.794873 0.267083
157 1 0.892543 0.756373 0.579937
158 2 0.886828 0.756433 0.552582
159 2 0.886958 0.748424 0.606421
160 1 0.822318 0.217335 0.336207
161 2 0.828389 0.238237 0.319937
162 2 0.819523 0.23112 0.36509
163 1 0.593734 0.34964 0.299182
164 2 0.5857 0.330442 0.304218
165 2 0.590867 0.378913 0.28642
166 1 0.289395 0.352773 0.65467
167 2 0.279897 0.346167 0.662745
168 2 0.294056 0.324426 0.646536
169 1 0.00759224 0.0530746 0.87453
170 2 0.0105588 0.0299055 0.8527
171 2 0.0130806 0.0507092 0.902293
172 1 0.144699 0.240734 0.652562
173 2 0.136169 0.22557 0.644035
174 2 0.144024 0.251726 0.68395
175 1 0.567921 0.322603 0.304225
176 2 0.559804 0.303139 0.303773
177 2 0.566931 0.345664 0.328067
178 1 0.345063 0.633146 0.193091
179 2 0.34946 0.604027 0.186138
180 2 0.338478 0.628911 0.217819
181 1 0.192845 0.46419 0.689343
182 2 0.190033 0.459665 0.657676
183 2 0.187054 0.445829 0.709376
184 1 0.522614 0.0702718 0.787153
185 2 0.52375 0.0624336 0.754976
186 2 0.523107 0.103365 0.790794
187 1 0.851389 0.628157 0.134014
188 2 0.857265 0.601981 0.140513
189 2 0.843006 0.617704 0.119148
190 1 0.321998 0.445492 0.414771
191 2 0.327821 0.471921 0.420757
192 2 0.314668 0.444296 0.437414
193 1 0.868234 0.56306 0.17072
194 2 0.868315 0.564804 0.204007
195 2 0.876125 0.545434 0.160302
196 1 0.233778 0.557403 0.715564
197 2 0.225954 0.549758 0.696261
198 2 0.242231 0.553738 0.698135
199 1 0.186836 0.451456 0.583984
200 2 0.19548 0.46563 0.575045
201 2 0.180755 0.449877 0.557569
202 1 0.192586 0.48882 0.780447
203 2 0.19024 0.489084 0.748046
204 2 0.186106 0.469516 0.796935
205 1 0.536609 0.362749 0.242257
206 2 0.526823 0.36092 0.235646
207 2 0.539423 0.394723 0.243139
208 1 0.807131 0.241894 0.423856
209 2 0.802733 0.215968 0.408887
210 2 0.801218 0.253262 0.448214
211 1 0.462395 0.55962 0.935551
212 2 0.467379 0.57966 0.914731
213 2 0.466442 0.561559 0.96597
214 1 0.381322 0.384478 0.29292
215 2 0.37413 0.361427 0.295168
216 2 0.390099 0.370945 0.301406
217 1 0.258277 0.615027 0.722564
218 2 0.248743 0.60602 0.727039
219 2 0.260262 0.641974 0.741037
220 1 0.916167 0.754389 0.630257
221 2 0.909397 0.750514 0.606032
222 2 0.924404 0.768521 0.617707
223 1 0.206313 0.345131 0.701899
224 2 0.213652 0.340765 0.724115
225 2 0.206047 0.377096 0.692487
226 1 0.339471 0.463708 0.862163
227 2 0.330078 0.4667 0.85113
228 2 0.342936 0.493677 0.871081
229 1 0.863904 0.733283 0.635549
230 2 0.868206 0.739803 0.664926
231 2 0.855498 0.715914 0.640474
232 1 0.443949 0.618505 0.774402
233 2 0.439121 0.589326 0.775223
234 2 0.437308 0.643358 0.772576
235 1 0.335033 0.37868 0.369397
236 2 0.329228 0.401429 0.384202
237 2 0.343365 0.374364 0.387315
238 1 0.142551 0.412013 0.626423
239 2 0.138808 0.441201 0.61625
240 2 0.135231 0.389343 0.627716
241 1 0.966642 0.0724072 0.841495
242 2 0.96978 0.0741245 0.809892
243 2 0.95794 0.0885553 0.84449
244 1 0.22225 0.434869 0.772093
245 2 0.22648 0.45682 0.792839
246 2 0.212695 0.443282 0.766989
247 1 0.333552 0.698071 0.0770729
248 2 0.331175 0.665705 0.0761797
249 2 0.330538 0.711173 0.10603
250 1 0.846147 0.542655 0.302436
251 2 0.847867 0.528988 0.332293
252 2 0.844819 0.575509 0.305921
253 1 0.247685 0.501692 0.592277
254 2 0.252115 0.522874 0.613359
255 2 0.239528 0.488848 0.606658
256 1 0.477016 0.609103 0.879086
257 2 0.475776 0.612971 0.846236
258 2 0.482877 0.633453 0.890769
259 1 0.225946 0.428912 0.483033
260 2 0.234099 0.446957 0.489885
261 2 0.228561 0.401889 0.465573
262 1 0.238817 0.224697 0.0915207
263 2 0.245115 0.215724 0.0672345
264 2 0.23085 0.204553 0.091255
265 1 0.797393 0.176763 0.355518
266 2 0.791724 0.164603 0.330897
267 2 0.806563 0.183233 0.343904
268 1 0.616426 0.325451 0.35555
269 2 0.609397 0.330631 0.332415
270 2 0.618125 0.292735 0.358496
271 1 0.878186 0.787007 0.705435
272 2 0.886668 0.772405 0.715359
273 2 0.878638 0.819675 0.711889
274 1 0.846006 0.632546 0.313201
275 2 0.84023 0.655943 0.299307
276 2 0.855557 0.638036 0.304988
277 1 0.893718 0.721933 0.254468
278 2 0.903125 0.724354 0.265515
279 2 0.893045 0.735846 0.22426
280 1 0.361827 0.705831 0.207913
281 2 0.370669 0.697492 0.194765
282 2 0.355054 0.682535 0.200249
283 1 0.30949 0.469988 0.577092
284 2 0.316146 0.472601 0.60183
285 2 0.301756 0.451431 0.587203
286 1 0.993291 0.122119 0.99103
287 2 0.989675 0.103251 0.966335
288 2 0.995797 0.152084 0.979056
289 1 0.369061 0.364593 0.375245
290 2 0.36901 0.392825 0.357524
291 2 0.37749 0.362846 0.393092
292 1 0.144877 0.277343 0.740545
293 2 0.14202 0.279087 0.772441
294 2 0.149947 0.304918 0.732472
295 1 0.224841 0.472079 0.624886
296 2 0.220748 0.461012 0.596559
297 2 0.220647 0.501133 0.633343
298 1 0.351138 0.372351 0.280417
299 2 0.346719 0.344526 0.269464
300 2 0.34876 0.377257 0.312421
ITEM: TIMESTEP
9300
ITEM: NUMBER OF ATOMS
300
ITEM: BOX BOUNDS pp ff pp
0.0000000000000000e+00 1.0000000000000000e+02
0.0000000000000000e+00 3.0000000000000000e+01
0.0000000000000000e+00 3.0000000000000000e+01
ITEM: ATOMS id type xs ys zs
1 1 0.334113 0.643762 0.293389
2 2 0.331116 0.66561 0.27028
3 2 0.328312 0.646541 0.320399
4 1 0.62265 0.24265 0.370509
5 2 0.627163 0.234436 0.399099
6 2 0.623864 0.218066 0.348364
7 1 0.0264558 0.0432556 0.945568
8 2 0.035597 0.0477167 0.958325
9 2 0.0196918 0.0440729 0.970106
10 1 0.545723 0.293479 0.278116
11 2 0.538995 0.313599 0.263854
12 2 0.546139 0.264718 0.261324
13 1 0.864876 0.677212 0.268578
14 2 0.871869 0.693584 0.285891
15 2 0.862398 0.694913 0.241568
16 1 0.271733 0.457196 0.696868
17 2 0.268706 0.433637 0.675555
18 2 0.266102 0.456056 0.724391
19 1 0.260316 0.387215 0.653756
20 2 0.250985 0.3832 0.665054
21 2 0.260224 0.388081 0.620436
22 1 0.154954 0.402893 0.696108
23 2 0.157962 0.373412 0.684215
24 2 0.14594 0.410246 0.683687
25 1 0.322962 0.708004 0.225429
26 2 0.316137 0.713529 0.201701
27 2 0.329013 0.734433 0.227853
28 1 0.557102 0.461158 0.35362
29 2 0.566575 0.470802 0.358197
30 2 0.554324 0.441189 0.378654
31 1 0.571259 0.387294 0.399478
32 2 0.575695 0.372041 0.425165
33 2 0.576283 0.415113 0.391941
34 1 0.175357 0.428341 0.74788
35 2 0.179184 0.397734 0.751285
36 2 0.16717 0.426944 0.72879
37 1 0.259412 0.382127 0.563478
38 2 0.250836 0.39719 0.555297
39 2 0.266479 0.390221 0.541327
40 1 0.311118 0.433695 0.493589
41 2 0.310106 0.450217 0.522342
42 2 0.313319 0.401797 0.499899
43 1 0.144741 0.513292 0.616056
44 2 0.15471 0.510716 0.615526
45 2 0.142121 0.545211 0.612056
46 1 0.548543 0.423377 0.265085
47 2 0.555603 0.409344 0.246102
48 2 0.552533 0.432704 0.294191
49 1 0.56791 0.360817 0.218946
50 2 0.563929 0.341995 0.194846
51 2 0.568482 0.34309 0.24711
52 1 0.915478 0.773235 0.726119
53 2 0.915975 0.760202 0.695484
54 2 0.922734 0.760264 0.745036
55 1 0.788199 0.655559 0.97292
56 2 0.784652 0.631363 0.953274
57 2 0.797861 0.649888 0.979378
58 1 0.259953 0.537103 0.673205
59 2 0.26589 0.510924 0.679046
60 2 0.260581 0.558514 0.698667
61 1 0.234899 0.406566 0.685666
62 2 0.228194 0.399138 0.709254
63 2 0.230203 0.419355 0.65916
64 1 0.27952 0.433461 0.518599
65 2 0.287869 0.421807 0.504436
66 2 0.281403 0.441741 0.550272
67 1 0.344873 0.53572 0.181596
68 2 0.350251 0.513931 0.199344
69 2 0.34407 0.524922 0.150174
70 1 0.85971 0.715333 0.184873
71 2 0.868471 0.729371 0.177059
72 2 0.856745 0.695606 0.159888
73 1 0.988992 0.105346 0.899246
74 2 0.982871 0.102442 0.873046
75 2 0.99831 0.0974577 0.89007
76 1 0.862702 0.809731 0.576493
77 2 0.853933 0.795822 0.568542
78 2 0.86576 0.798063 0.606006
79 1 0.212088 0.461882 0.532548
80 2 0.214461 0.494251 0.531655
81 2 0.215975 0.44654 0.505943
82 1 0.600194 0.407884 0.353912
83 2 0.6061 0.389026 0.373095
84 2 0.598498 0.392238 0.325026
85 1 0.286228 0.436972 0.613252
86 2 0.285531 0.40974 0.632334
87 2 0.28318 0.463577 0.630575
88 1 0.468124 0.613524 0.799711
89 2 0.472501 0.613474 0.769741
90 2 0.45938 0.629593 0.797851
91 1 0.354769 0.456062 0.231634
92 2 0.351816 0.470499 0.26002
93 2 0.354091 0.422942 0.234649
94 1 0.428228 0.579248 0.804815
95 2 0.435149 0.561123 0.820636
96 2 0.419213 0.565653 0.809648
97 1 0.582897 0.468538 0.38283
98 2 0.591254 0.450559 0.379394
99 2 0.585111 0.500975 0.380712
100 1 0.182675 0.346211 0.744199
101 2 0.191428 0.337134 0.730884
102 2 0.175199 0.333441 0.726113
103 1 0.300535 0.442601 0.711465
104 2 0.293524 0.458822 0.728839
105 2 0.296686 0.414357 0.699264
106 1 0.252632 0.472548 0.517876
107 2 0.250468 0.483466 0.548534
108 2 0.262499 0.467828 0.515215
109 1 0.206132 0.526792 0.664796
110 2 0.202555 0.556677 0.656088
111 2 0.198572 0.505143 0.667529
112 1 0.364702 0.504456 0.973074
113 2 0.362848 0.471756 0.971164
114 2 0.373592 0.509338 0.987535
115 1 0.450445 0.53748 0.841367
116 2 0.458065 0.548453 0.822779
117 2 0.452963 0.538897 0.873596
118 1 0.360486 0.41457 0.961288
119 2 0.360366 0.384432 0.975524
120 2 0.359259 0.41136 0.928363
121 1 0.00642614 0.070048 0.00885605
122 2 0.997404 0.0812224 -0.000185076
123 2 0.00960211 0.0869886 0.0355404
124 1 0.166406 0.313579 0.665743
125 2 0.172485 0.306408 0.640266
126 2 0.162018 0.285629 0.676514
127 1 0.885631 0.804324 0.524272
128 2 0.885871 0.824257 0.497567
129 2 0.877578 0.811495 0.542688
130 1 0.628082 0.185901 0.304189
131 2 0.636746 0.185876 0.287542
132 2 0.623794 0.155893 0.301686
133 1 0.231238 0.506031 0.80047
134 2 0.229515 0.530801 0.778916
135 2 0.222526 0.493923 0.811476
136 1 0.248569 0.462523 0.747118
137 2 0.243345 0.443447 0.726047
138 2 0.242272 0.479787 0.766415
139 1 0.327701 0.641884 0.16314
140 2 0.324857 0.657004 0.191294
141 2 0.336493 0.626762 0.167975
142 1 0.34827 0.526703 0.891476
143 2 0.349467 0.557803 0.880164
144 2 0.353812 0.522395 0.918886
145 1 0.226133 0.539831 0.535771
146 2 0.231501 0.537377 0.563787
147 2 0.232174 0.547607 0.510372
148 1 0.321801 0.479735 0.647451
149 2 0.316487 0.462802 0.670048
150 2 0.324229 0.50962 0.6598
151 1 0.865038 0.567169 0.230663
152 2 0.868902 0.597739 0.233937
153 2 0.861529 0.55683 0.260114
154 1 0.341435 0.781108 0.234784
155 2 0.347597 0.755434 0.229302
156 2 0.345851 0.802943 0.255222
157 1 0.89399 0.747266 0.585684
158 2 0.891984 0.772951 0.565517
159 2 0.887045 0.723629 0.581618
160 1 0.814468 0.23361 0.328019
161 2 0.817068 0.251669 0.301376
162 2 0.816442 0.250878 0.355762
163 1 0.593319 0.349412 0.28533
164 2 0.584231 0.342994 0.297672
165 2 0.592424 0.366822 0.257061
166 1 0.289143 0.365661 0.678804
167 2 0.279168 0.367703 0.677677
168 2 0.291834 0.334403 0.686121
169 1 0.0124981 0.0632128 0.869667
170 2 0.0145625 0.0342959 0.854582
171 2 0.0156403 0.0620151 0.90129
172 1 0.151215 0.238905 0.682647
173 2 0.14538 0.217572 0.665981
174 2 0.146051 0.252247 0.707881
175 1 0.567545 0.343616 0.314267
176 2 0.558766 0.32871 0.308569
177 2 0.567181 0.359696 0.34344
178 1 0.34948 0.617413 0.225654
179 2 0.347562 0.588307 0.210717
180 2 0.343947 0.620001 0.253298
181 1 0.185727 0.461016 0.672506
182 2 0.182321 0.453846 0.641996
183 2 0.181198 0.441436 0.694863
184 1 0.512109 0.0763673 0.805283
185 2 0.502166 0.0737468 0.802892
186 2 0.515965 0.0825981 0.775165
187 1 0.856348 0.629104 0.125151
188 2 0.863891 0.609314 0.134491
189 2 0.848159 0.610687 0.119958
190 1 0.320109 0.424333 0.405649
191 2 0.31625 0.446709 0.384555
192 2 0.315231 0.425828 0.434708
193 1 0.871003 0.552178 0.148111
194 2 0.868443 0.556295 0.18007
195 2 0.879987 0.537643 0.146389
196 1 0.225733 0.545499 0.721562
197 2 0.217548 0.550949 0.703203
198 2 0.233856 0.54826 0.702317
199 1 0.180201 0.465287 0.568967
200 2 0.181242 0.440296 0.547183
201 2 0.18903 0.480288 0.573446
202 1 0.204531 0.488308 0.789923
203 2 0.200201 0.512255 0.808071
204 2 0.197512 0.471274 0.773384
205 1 0.527893 0.35632 0.244468
206 2 0.518905 0.369857 0.249963
207 2 0.534901 0.380053 0.245968
208 1 0.814397 0.261683 0.412679
209 2 0.809042 0.233537 0.413237
210 2 0.811485 0.281492 0.43767
211 1 0.463866 0.55156 0.928968
212 2 0.472218 0.558604 0.912041
213 2 0.466252 0.541441 0.959716
214 1 0.384279 0.421418 0.264876
215 2 0.374378 0.42154 0.269558
216 2 0.386847 0.447118 0.245451
217 1 0.260915 0.606985 0.733452
218 2 0.25439 0.632007 0.736898
219 2 0.270069 0.617575 0.741695
220 1 0.916828 0.724116 0.640573
221 2 0.907805 0.735698 0.632065
222 2 0.922097 0.717515 0.613023
223 1 0.209238 0.33983 0.706286
224 2 0.212962 0.347872 0.736159
225 2 0.213931 0.357389 0.682662
226 1 0.346521 0.434611 0.873426
227 2 0.338864 0.43544 0.852
228 2 0.348782 0.465657 0.882935
229 1 0.862875 0.756833 0.645996
230 2 0.870476 0.76462 0.666207
231 2 0.855186 0.745622 0.664123
232 1 0.44382 0.651327 0.78442
233 2 0.437092 0.628236 0.793082
234 2 0.439731 0.672357 0.762441
235 1 0.342211 0.374529 0.355553
236 2 0.334617 0.38391 0.37511
237 2 0.350206 0.367714 0.374378
238 1 0.133447 0.441136 0.661122
239 2 0.137759 0.462442 0.639896
240 2 0.123506 0.444161 0.659166
241 1 0.968661 0.0661865 0.840165
242 2 0.964792 0.0940809 0.827254
243 2 0.966591 0.0404496 0.820137
244 1 0.220831 0.409509 0.759503
245 2 0.225984 0.437861 0.763
246 2 0.212603 0.410732 0.778406
247 1 0.335602 0.720035 0.0666236
248 2 0.337933 0.694429 0.0467463
249 2 0.335523 0.709794 0.0983437
250 1 0.851949 0.543725 0.305401
251 2 0.854596 0.545273 0.337509
252 2 0.847064 0.57157 0.296998
253 1 0.243246 0.502853 0.609342
254 2 0.2478 0.512812 0.637297
255 2 0.23518 0.484758 0.61714
256 1 0.482741 0.562941 0.856155
257 2 0.476755 0.586842 0.84425
258 2 0.492077 0.568042 0.845351
259 1 0.230492 0.440457 0.471229
260 2 0.238202 0.45932 0.480968
261 2 0.232969 0.423891 0.443506
262 1 0.247176 0.228698 0.0681191
263 2 0.240461 0.227134 0.0927674
264 2 0.256401 0.227977 0.0809728
265 1 0.800452 0.180087 0.383547
266 2 0.793841 0.160255 0.368312
267 2 0.806002 0.19577 0.36068
268 1 0.612296 0.321931 0.357363
269 2 0.60716 0.321152 0.328771
270 2 0.617014 0.292861 0.361692
271 1 0.879697 0.778738 0.716771
272 2 0.887837 0.765439 0.73084
273 2 0.8791 0.811027 0.724803
274 1 0.842509 0.635697 0.308085
275 2 0.8357 0.659631 0.312888
276 2 0.850476 0.648526 0.292551
277 1 0.890517 0.717034 0.280931
278 2 0.894151 0.721659 0.311639
279 2 0.897726 0.705006 0.261205
280 1 0.357561 0.712758 0.21978
281 2 0.366487 0.713583 0.204773
282 2 0.354454 0.681167 0.222187
283 1 0.308696 0.470702 0.574572
284 2 0.315038 0.479406 0.598829
285 2 0.300832 0.454932 0.587808
286 1 0.98184 0.122871 0.991205
287 2 0.982322 0.121943 0.957923
288 2 0.974719 0.144309 1.00059
289 1 0.369531 0.365214 0.387562
290 2 0.374882 0.376199 0.361634
291 2 0.375712 0.354758 0.411589
292 1 0.128935 0.277312 0.726076
293 2 0.120805 0.275326 0.745381
294 2 0.128529 0.305194 0.707859
295 1 0.222038 0.455726 0.62448
296 2 0.218406 0.446311 0.594885
297 2 0.216524 0.480783 0.636541
298 1 0.350518 0.377247 0.275267
299 2 0.354043 0.348306 0.286907
300 2 0.344905 0.391859 0.298665
ITEM: TIMESTEP
9400
ITEM: NUMBER OF ATOMS
300
ITEM: BOX BOUNDS pp ff pp
0.0000000000000000e+00 1.0000000000000000e+02
0.0000000000000000e+00 3.0000000000000000e+01
0.0000000000000000e+00 3.0000000000000000e+01
ITEM: ATOMS id type xs ys zs
1 1 0.327534 0.647639 0.292653
2 2 0.321389 0.66139 0.270239
3 2 0.323355 0.649246 0.322894
4 1 0.622306 0.251904 0.370306
5 2 0.63137 0.258747 0.382609
6 2 0.622505 0.222272 0.355052
7 1 0.024427 0.05601 0.950073
8 2 0.0252124 0.0255363 0.963325
9 2 0.0171494 0.0728177 0.965569
10 1 0.549686 0.304276 0.28498
11 2 0.541276 0.320627 0.277376
12 2 0.547833 0.271538 0.286059
13 1 0.859821 0.680213 0.246488
14 2 0.86852 0.680883 0.262914
15 2 0.860332 0.700516 0.220106
16 1 0.266301 0.474963 0.686343
17 2 0.261373 0.449541 0.672381
18 2 0.264372 0.475728 0.719041
19 1 0.256441 0.403714 0.650191
20 2 0.248632 0.400499 0.670767
21 2 0.254893 0.385417 0.62281
22 1 0.160629 0.42088 0.684524
23 2 0.159568 0.388577 0.677103
24 2 0.151674 0.434042 0.691369
25 1 0.315338 0.693853 0.231141
26 2 0.314391 0.693162 0.197964
27 2 0.320727 0.720484 0.24004
28 1 0.56174 0.444564 0.334319
29 2 0.566763 0.47332 0.332343
30 2 0.564928 0.427318 0.360791
31 1 0.569125 0.382294 0.405469
32 2 0.56808 0.360077 0.430073
33 2 0.576182 0.404421 0.413729
34 1 0.177189 0.417033 0.754316
35 2 0.180727 0.386054 0.757828
36 2 0.171222 0.418388 0.727602
37 1 0.258431 0.364005 0.567015
38 2 0.253749 0.338613 0.552088
39 2 0.264783 0.378203 0.545539
40 1 0.313808 0.444462 0.506258
41 2 0.312781 0.46993 0.527489
42 2 0.322485 0.42895 0.512084
43 1 0.150317 0.528728 0.649113
44 2 0.154366 0.535079 0.678922
45 2 0.156355 0.508496 0.631887
46 1 0.546102 0.417215 0.252463
47 2 0.553954 0.408727 0.233645
48 2 0.549186 0.43615 0.277898
49 1 0.561844 0.351385 0.206071
50 2 0.566137 0.329352 0.185556
51 2 0.556778 0.335148 0.229785
52 1 0.914456 0.774147 0.723208
53 2 0.911607 0.743984 0.712668
54 2 0.923168 0.782249 0.708989
55 1 0.790652 0.647602 0.941983
56 2 0.784015 0.672486 0.943525
57 2 0.786044 0.619665 0.932252
58 1 0.255699 0.552079 0.665168
59 2 0.262119 0.527532 0.672285
60 2 0.255766 0.574511 0.689823
61 1 0.23453 0.395259 0.70294
62 2 0.228296 0.390597 0.728582
63 2 0.229237 0.400448 0.67514
64 1 0.282964 0.448375 0.510546
65 2 0.292164 0.451977 0.497987
66 2 0.283409 0.449032 0.54384
67 1 0.341052 0.545599 0.20359
68 2 0.340076 0.513382 0.211502
69 2 0.346095 0.54836 0.174938
70 1 0.860565 0.725267 0.16255
71 2 0.869926 0.733138 0.153858
72 2 0.857076 0.701692 0.142054
73 1 0.988242 0.109304 0.882641
74 2 0.982433 0.0969632 0.858476
75 2 0.997714 0.110554 0.872028
76 1 0.866712 0.813759 0.571998
77 2 0.857397 0.814931 0.559933
78 2 0.866458 0.804331 0.603959
79 1 0.21873 0.464808 0.546138
80 2 0.220509 0.496414 0.53736
81 2 0.224361 0.444424 0.52761
82 1 0.59933 0.417542 0.350823
83 2 0.599398 0.387459 0.36518
84 2 0.598755 0.414044 0.317729
85 1 0.283031 0.458748 0.606829
86 2 0.285666 0.427997 0.616231
87 2 0.273833 0.465466 0.618047
88 1 0.465635 0.597901 0.787239
89 2 0.463215 0.592436 0.755362
90 2 0.460702 0.624647 0.798434
91 1 0.348543 0.462714 0.226664
92 2 0.358461 0.466788 0.225457
93 2 0.346367 0.436267 0.245615
94 1 0.426332 0.622465 0.829804
95 2 0.431819 0.594993 0.834481
96 2 0.416987 0.613822 0.821677
97 1 0.586673 0.462918 0.41252
98 2 0.591732 0.44779 0.388068
99 2 0.59304 0.472501 0.436372
100 1 0.182797 0.323957 0.738651
101 2 0.190468 0.319726 0.717689
102 2 0.174206 0.322674 0.721644
103 1 0.293428 0.426417 0.707345
104 2 0.286022 0.448783 0.708523
105 2 0.290842 0.40141 0.687062
106 1 0.259604 0.488183 0.489777
107 2 0.257998 0.51589 0.507518
108 2 0.268208 0.474189 0.499411
109 1 0.210946 0.517417 0.633942
110 2 0.211636 0.528809 0.6027
111 2 0.202502 0.499884 0.637331
112 1 0.367623 0.505791 0.955441
113 2 0.368847 0.473356 0.961955
114 2 0.374088 0.523573 0.97362
115 1 0.445176 0.549941 0.841665
116 2 0.452334 0.568336 0.827397
117 2 0.449183 0.531172 0.865758
118 1 0.36579 0.41571 0.952332
119 2 0.362651 0.397249 0.978038
120 2 0.362056 0.403358 0.923985
121 1 0.00539928 0.0940694 0.0131776
122 2 0.996618 0.0786144 1.00923
123 2 0.00467107 0.116325 0.0378737
124 1 0.160117 0.321068 0.674744
125 2 0.164373 0.306577 0.648289
126 2 0.153909 0.29948 0.689471
127 1 0.891501 0.834959 0.587842
128 2 0.895918 0.852063 0.563311
129 2 0.882815 0.822565 0.576921
130 1 0.624225 0.172839 0.323855
131 2 0.620187 0.166906 0.293943
132 2 0.6232 0.145857 0.343127
133 1 0.23628 0.508501 0.784566
134 2 0.232525 0.513776 0.754126
135 2 0.229055 0.497264 0.804688
136 1 0.258686 0.452832 0.771878
137 2 0.255332 0.42156 0.769017
138 2 0.250935 0.473575 0.775541
139 1 0.337226 0.657977 0.153294
140 2 0.332098 0.679797 0.171808
141 2 0.341025 0.634235 0.172965
142 1 0.346351 0.487848 0.89578
143 2 0.338518 0.507208 0.903172
144 2 0.354398 0.498534 0.912435
145 1 0.220722 0.555505 0.550458
146 2 0.228491 0.562252 0.570334
147 2 0.219485 0.580446 0.528732
148 1 0.321329 0.485135 0.679192
149 2 0.313756 0.464967 0.687392
150 2 0.325783 0.496188 0.706913
151 1 0.86818 0.579688 0.216788
152 2 0.863106 0.605647 0.229081
153 2 0.866363 0.55268 0.235361
154 1 0.332882 0.762885 0.221607
155 2 0.341702 0.747894 0.226292
156 2 0.334384 0.794465 0.212185
157 1 0.89362 0.748257 0.619596
158 2 0.892767 0.771641 0.596011
159 2 0.8856 0.749228 0.639483
160 1 0.806565 0.25558 0.322874
161 2 0.804647 0.282723 0.304612
162 2 0.811152 0.264534 0.351108
163 1 0.598025 0.339335 0.278917
164 2 0.589736 0.346136 0.296282
165 2 0.595598 0.332966 0.247213
166 1 0.280271 0.365579 0.660267
167 2 0.272652 0.379581 0.643831
168 2 0.277201 0.337193 0.67443
169 1 0.0158618 0.090217 0.871028
170 2 0.0239182 0.0888819 0.851326
171 2 0.0184945 0.0827076 0.902296
172 1 0.145724 0.262891 0.721595
173 2 0.146294 0.234409 0.738808
174 2 0.136427 0.275011 0.723553
175 1 0.572962 0.333345 0.325671
176 2 0.56444 0.323257 0.311445
177 2 0.570941 0.347618 0.355032
178 1 0.349411 0.619471 0.242147
179 2 0.345318 0.589619 0.236327
180 2 0.344602 0.634292 0.267336
181 1 0.188844 0.478163 0.663828
182 2 0.179435 0.485974 0.655687
183 2 0.189483 0.47364 0.696784
184 1 0.500172 0.0799591 0.823643
185 2 0.497065 0.0836843 0.792178
186 2 0.500192 0.109596 0.838899
187 1 0.860385 0.657464 0.099724
188 2 0.864466 0.629937 0.112697
189 2 0.85514 0.649445 0.0724991
190 1 0.325081 0.40204 0.389151
191 2 0.319843 0.404699 0.360881
192 2 0.321722 0.424333 0.411261
193 1 0.869504 0.561327 0.130592
194 2 0.871566 0.573798 0.160731
195 2 0.877154 0.542494 0.120282
196 1 0.225987 0.536405 0.706113
197 2 0.218958 0.528118 0.683897
198 2 0.23265 0.556714 0.691785
199 1 0.190133 0.481852 0.532073
200 2 0.188356 0.450809 0.521473
201 2 0.199999 0.486617 0.534684
202 1 0.198607 0.454527 0.790433
203 2 0.191262 0.437435 0.775618
204 2 0.195422 0.465827 0.81994
205 1 0.527851 0.350394 0.267914
206 2 0.518534 0.361852 0.271829
207 2 0.533852 0.375426 0.258731
208 1 0.819245 0.26773 0.407377
209 2 0.814652 0.238922 0.414221
210 2 0.825654 0.275055 0.431892
211 1 0.46422 0.519539 0.906309
212 2 0.469948 0.528654 0.880551
213 2 0.470037 0.509844 0.93163
214 1 0.374655 0.447307 0.245705
215 2 0.369358 0.423322 0.260677
216 2 0.381776 0.433486 0.22682
217 1 0.261345 0.592543 0.748903
218 2 0.269708 0.575983 0.741179
219 2 0.257183 0.578924 0.775981
220 1 0.915074 0.705539 0.654789
221 2 0.910355 0.729875 0.638314
222 2 0.921022 0.688912 0.633777
223 1 0.207287 0.322509 0.694009
224 2 0.207687 0.343091 0.720195
225 2 0.213688 0.332909 0.670606
226 1 0.352227 0.405723 0.86759
227 2 0.346506 0.39705 0.841663
228 2 0.349896 0.43667 0.877237
229 1 0.868848 0.778097 0.648745
230 2 0.875208 0.78222 0.674137
231 2 0.859598 0.773682 0.660619
232 1 0.450168 0.668961 0.809754
233 2 0.441762 0.652105 0.816221
234 2 0.447905 0.700469 0.801916
235 1 0.345044 0.352968 0.362598
236 2 0.336897 0.371206 0.369011
237 2 0.353225 0.371302 0.368186
238 1 0.135844 0.454872 0.683171
239 2 0.137944 0.484906 0.670521
240 2 0.128347 0.441106 0.665932
241 1 0.968559 0.0650664 0.824406
242 2 0.966304 0.0326071 0.823424
243 2 0.964086 0.0806988 0.799022
244 1 0.212393 0.386798 0.760516
245 2 0.20585 0.411983 0.761595
246 2 0.215199 0.378865 0.79151
247 1 0.332397 0.728756 0.107628
248 2 0.326849 0.726115 0.0800213
249 2 0.334959 0.69833 0.118233
250 1 0.856074 0.549295 0.312557
251 2 0.848652 0.527991 0.305826
252 2 0.852403 0.580232 0.314629
253 1 0.247939 0.523292 0.581662
254 2 0.250385 0.537704 0.610593
255 2 0.246067 0.490944 0.586734
256 1 0.481475 0.546941 0.840533
257 2 0.475411 0.561546 0.818414
258 2 0.490983 0.55119 0.831119
259 1 0.23829 0.435813 0.479971
260 2 0.247443 0.448339 0.484798
261 2 0.235629 0.440118 0.448129
262 1 0.255668 0.239256 0.0428814
263 2 0.264099 0.222918 0.0355105
264 2 0.250149 0.220871 0.0637296
265 1 0.805227 0.190656 0.407732
266 2 0.800737 0.161618 0.414357
267 2 0.803458 0.199226 0.376064
268 1 0.606966 0.325965 0.366107
269 2 0.60663 0.328763 0.33291
270 2 0.611354 0.297166 0.374342
271 1 0.885448 0.784615 0.727068
272 2 0.895299 0.788002 0.722442
273 2 0.883402 0.78589 0.759672
274 1 0.844899 0.631186 0.31311
275 2 0.839757 0.655596 0.32799
276 2 0.849427 0.643187 0.28592
277 1 0.884501 0.686096 0.277295
278 2 0.88959 0.712859 0.287647
279 2 0.888943 0.658479 0.288658
280 1 0.355557 0.702188 0.219783
281 2 0.363969 0.702201 0.201755
282 2 0.353163 0.670856 0.227894
283 1 0.308649 0.48386 0.585532
284 2 0.313521 0.490283 0.613924
285 2 0.299078 0.476964 0.592297
286 1 0.978761 0.106769 0.972106
287 2 0.979781 0.107751 0.938961
288 2 0.975049 0.135789 0.98287
289 1 0.373155 0.358878 0.390052
290 2 0.376153 0.370667 0.419585
291 2 0.367757 0.331197 0.394651
292 1 0.118871 0.289558 0.705262
293 2 0.112227 0.26604 0.697041
294 2 0.116149 0.303803 0.734
295 1 0.22322 0.423671 0.630441
296 2 0.222441 0.435264 0.599296
297 2 0.216607 0.439276 0.649977
298 1 0.349702 0.372812 0.267363
299 2 0.344711 0.350584 0.248915
300 2 0.348117 0.3666 0.299684
ITEM: TIMESTEP
9500
ITEM: NUMBER OF ATOMS
300
ITEM: BOX BOUNDS pp ff pp
0.0000000000000000e+00 1.0000000000000000e+02
0.0000000000000000e+00 3.0000000000000000e+01
0.0000000000000000e+00 3.0000000000000000e+01
ITEM: ATOMS id type xs ys zs
1 1 0.31945 0.6437 0.290803
2 2 0.315045 0.669983 0.276496
3 2 0.312715 0.626853 0.308783
4 1 0.624023 0.249724 0.371144
5 2 0.633571 0.254638 0.379757
6 2 0.622412 0.217145 0.366577
7 1 0.0194562 0.0805622 0.956805
8 2 0.0253214 0.0542137 0.96269
9 2 0.0139853 0.0871437 0.98392
10 1 0.55065 0.295003 0.296033
11 2 0.543847 0.31942 0.296817
12 2 0.546583 0.26687 0.307689
13 1 0.856774 0.672616 0.2259
14 2 0.866537 0.671581 0.233033
15 2 0.855388 0.689456 0.197507
16 1 0.264531 0.464316 0.677929
17 2 0.25989 0.438507 0.663584
18 2 0.26051 0.470035 0.707909
19 1 0.254 0.398101 0.628975
20 2 0.2447 0.399318 0.641165
21 2 0.253693 0.389147 0.596883
22 1 0.161158 0.412189 0.695899
23 2 0.160064 0.380367 0.686671
24 2 0.152174 0.425483 0.702024
25 1 0.303988 0.708694 0.241055
26 2 0.295462 0.723742 0.232276
27 2 0.31169 0.729104 0.235109
28 1 0.566642 0.416291 0.300878
29 2 0.57449 0.412754 0.280524
30 2 0.56818 0.398694 0.32872
31 1 0.566402 0.380495 0.395014
32 2 0.557819 0.371879 0.409792
33 2 0.569436 0.410013 0.406742
34 1 0.182838 0.403814 0.743492
35 2 0.186005 0.372214 0.742466
36 2 0.173657 0.405734 0.73042
37 1 0.266104 0.369334 0.530028
38 2 0.258745 0.390847 0.523199
39 2 0.274899 0.382991 0.521968
40 1 0.315369 0.456789 0.508456
41 2 0.315283 0.465536 0.540621
42 2 0.323719 0.468188 0.49409
43 1 0.161288 0.523229 0.662973
44 2 0.163895 0.542042 0.636864
45 2 0.168279 0.499962 0.668147
46 1 0.544783 0.422977 0.249625
47 2 0.548938 0.397772 0.232774
48 2 0.550363 0.430006 0.276379
49 1 0.557754 0.346636 0.212313
50 2 0.563291 0.330113 0.190009
51 2 0.559588 0.334689 0.242826
52 1 0.911757 0.774392 0.723253
53 2 0.90718 0.766604 0.694658
54 2 0.921238 0.763848 0.722213
55 1 0.787852 0.638827 0.896566
56 2 0.782813 0.644028 0.868248
57 2 0.782053 0.622232 0.918062
58 1 0.258972 0.555961 0.660067
59 2 0.265301 0.530155 0.659865
60 2 0.259292 0.570953 0.68982
61 1 0.234004 0.400075 0.701714
62 2 0.228076 0.382239 0.721779
63 2 0.228498 0.414198 0.677738
64 1 0.283068 0.436777 0.528389
65 2 0.291855 0.443099 0.513783
66 2 0.283647 0.444197 0.560828
67 1 0.340041 0.570576 0.20566
68 2 0.34185 0.553606 0.17761
69 2 0.336613 0.549725 0.229021
70 1 0.860893 0.720306 0.14662
71 2 0.860683 0.753039 0.140362
72 2 0.861079 0.703503 0.117838
73 1 0.984092 0.0964317 0.867349
74 2 0.978723 0.0815376 0.843497
75 2 0.993827 0.0937296 0.860214
76 1 0.874563 0.847291 0.589653
77 2 0.870748 0.874064 0.5744
78 2 0.86714 0.826907 0.598782
79 1 0.227591 0.45726 0.547834
80 2 0.225651 0.489664 0.543445
81 2 0.233313 0.446249 0.522812
82 1 0.600298 0.422858 0.366831
83 2 0.602694 0.390827 0.37145
84 2 0.606137 0.435851 0.343093
85 1 0.284297 0.473795 0.616995
86 2 0.290392 0.447563 0.620179
87 2 0.27682 0.471278 0.638987
88 1 0.458636 0.592721 0.779797
89 2 0.455104 0.598948 0.74924
90 2 0.457713 0.620026 0.798667
91 1 0.339369 0.46358 0.24322
92 2 0.347514 0.462004 0.223947
93 2 0.339709 0.439291 0.266021
94 1 0.432149 0.655728 0.859519
95 2 0.434021 0.624163 0.868227
96 2 0.423156 0.664704 0.871009
97 1 0.580975 0.450198 0.422532
98 2 0.588566 0.442207 0.40236
99 2 0.584296 0.452435 0.453893
100 1 0.186399 0.316368 0.712262
101 2 0.193803 0.311763 0.690335
102 2 0.177623 0.310223 0.697514
103 1 0.293117 0.413559 0.715073
104 2 0.285564 0.409444 0.736531
105 2 0.292197 0.391768 0.690036
106 1 0.262643 0.490621 0.496764
107 2 0.259228 0.516705 0.514119
108 2 0.268678 0.472355 0.516071
109 1 0.209897 0.511911 0.646437
110 2 0.207417 0.525279 0.617043
111 2 0.201726 0.509193 0.665461
112 1 0.366533 0.485066 0.92283
113 2 0.369701 0.454025 0.928833
114 2 0.369037 0.504777 0.948384
115 1 0.443427 0.566129 0.854874
116 2 0.445958 0.573288 0.823431
117 2 0.446955 0.536004 0.86295
118 1 0.371999 0.402746 0.962488
119 2 0.36596 0.384569 0.981865
120 2 0.371802 0.390716 0.931408
121 1 0.004405 0.101435 0.0240449
122 2 0.995168 0.101814 0.0112778
123 2 0.00459333 0.119465 0.0520739
124 1 0.159674 0.323724 0.681277
125 2 0.158903 0.311457 0.650389
126 2 0.155192 0.303038 0.702725
127 1 0.900378 0.845919 0.621164
128 2 0.900434 0.874204 0.638799
129 2 0.891036 0.83911 0.611414
130 1 0.61923 0.156138 0.346319
131 2 0.62409 0.127204 0.349717
132 2 0.610324 0.15408 0.361337
133 1 0.232768 0.529676 0.789551
134 2 0.233026 0.528521 0.756249
135 2 0.223264 0.528838 0.799883
136 1 0.250649 0.462279 0.752921
137 2 0.246196 0.433988 0.743412
138 2 0.244389 0.479893 0.772037
139 1 0.333428 0.644207 0.151764
140 2 0.342122 0.660612 0.150322
141 2 0.334266 0.618552 0.172863
142 1 0.347043 0.466346 0.862686
143 2 0.343295 0.492058 0.845543
144 2 0.35302 0.477741 0.886859
145 1 0.225516 0.544182 0.561016
146 2 0.235125 0.552646 0.564696
147 2 0.221265 0.563964 0.538235
148 1 0.313393 0.476011 0.681363
149 2 0.305086 0.458532 0.687606
150 2 0.317314 0.48675 0.710084
151 1 0.870001 0.586328 0.219604
152 2 0.861909 0.605626 0.216275
153 2 0.867486 0.558118 0.235258
154 1 0.328232 0.738094 0.224987
155 2 0.337597 0.736436 0.236556
156 2 0.328405 0.740321 0.191733
157 1 0.898168 0.766038 0.64576
158 2 0.902035 0.796076 0.63923
159 2 0.888186 0.767773 0.644777
160 1 0.803293 0.29398 0.354264
161 2 0.800068 0.325462 0.35215
162 2 0.811958 0.293194 0.370884
163 1 0.598174 0.342772 0.283912
164 2 0.589272 0.330484 0.292835
165 2 0.599837 0.336147 0.251717
166 1 0.285748 0.374548 0.630275
167 2 0.275875 0.377467 0.634706
168 2 0.287544 0.359065 0.601369
169 1 0.0142427 0.118221 0.867534
170 2 0.0188017 0.147002 0.860336
171 2 0.0171574 0.107757 0.897654
172 1 0.13692 0.305216 0.740621
173 2 0.132094 0.30758 0.76972
174 2 0.130535 0.311094 0.71565
175 1 0.575573 0.320924 0.324741
176 2 0.566945 0.304844 0.319688
177 2 0.574924 0.339066 0.35262
178 1 0.344688 0.632581 0.270791
179 2 0.345459 0.610544 0.245914
180 2 0.335282 0.632963 0.282103
181 1 0.181621 0.466111 0.66141
182 2 0.173764 0.445936 0.665665
183 2 0.188604 0.459061 0.684208
184 1 0.488275 0.0859094 0.842432
185 2 0.480336 0.0803165 0.861915
186 2 0.487461 0.116014 0.82838
187 1 0.861776 0.674306 0.0704787
188 2 0.866134 0.647604 0.0841591
189 2 0.861467 0.670648 0.0373627
190 1 0.321506 0.413591 0.387692
191 2 0.313592 0.430276 0.375995
192 2 0.319001 0.397994 0.415942
193 1 0.870813 0.602711 0.11061
194 2 0.875758 0.602501 0.139581
195 2 0.866094 0.573602 0.106565
196 1 0.23421 0.528131 0.699425
197 2 0.225322 0.52793 0.684151
198 2 0.241144 0.540227 0.678676
199 1 0.19484 0.480966 0.528112
200 2 0.189287 0.454359 0.535891
201 2 0.204439 0.471925 0.525719
202 1 0.202789 0.438856 0.808983
203 2 0.193284 0.434369 0.799647
204 2 0.203078 0.458335 0.836016
205 1 0.531905 0.363485 0.301716
206 2 0.524049 0.376676 0.317573
207 2 0.535346 0.385234 0.279211
208 1 0.824335 0.273325 0.40831
209 2 0.818951 0.245262 0.409542
210 2 0.833257 0.268123 0.422438
211 1 0.458377 0.488811 0.861294
212 2 0.464934 0.509218 0.846563
213 2 0.463268 0.463394 0.875412
214 1 0.366389 0.432059 0.224162
215 2 0.363804 0.413262 0.250307
216 2 0.374796 0.420106 0.210637
217 1 0.258546 0.578733 0.756568
218 2 0.250225 0.586886 0.773163
219 2 0.263394 0.554696 0.773067
220 1 0.914054 0.684909 0.658466
221 2 0.90942 0.712745 0.648579
222 2 0.907311 0.663368 0.670383
223 1 0.206571 0.355536 0.661146
224 2 0.209568 0.363232 0.692003
225 2 0.208968 0.380348 0.64037
226 1 0.361841 0.386778 0.878282
227 2 0.358551 0.366033 0.854607
228 2 0.358484 0.417568 0.872128
229 1 0.870952 0.758829 0.682031
230 2 0.874623 0.766111 0.71217
231 2 0.861278 0.767188 0.680815
232 1 0.457278 0.665281 0.831289
233 2 0.447746 0.663908 0.841274
234 2 0.462369 0.686073 0.851059
235 1 0.346761 0.354029 0.37795
236 2 0.340192 0.378981 0.374927
237 2 0.344143 0.334638 0.40362
238 1 0.136449 0.461271 0.693973
239 2 0.142261 0.486482 0.683962
240 2 0.130819 0.450872 0.668462
241 1 0.972477 0.0591586 0.791213
242 2 0.97282 0.0897693 0.778067
243 2 0.971847 0.0366275 0.766737
244 1 0.214506 0.376165 0.760303
245 2 0.209821 0.401655 0.775049
246 2 0.219356 0.358241 0.783293
247 1 0.328571 0.726483 0.114307
248 2 0.328832 0.714525 0.0832042
249 2 0.326991 0.701458 0.135688
250 1 0.855355 0.543468 0.298632
251 2 0.848074 0.524447 0.31129
252 2 0.852656 0.575522 0.300288
253 1 0.252566 0.534856 0.570937
254 2 0.255245 0.550698 0.598874
255 2 0.246309 0.509967 0.57846
256 1 0.475901 0.543742 0.82361
257 2 0.469332 0.558506 0.803272
258 2 0.484916 0.557572 0.819506
259 1 0.242925 0.43772 0.470549
260 2 0.24996 0.461267 0.473171
261 2 0.242891 0.425562 0.439512
262 1 0.262909 0.257306 -0.00195262
263 2 0.255822 0.242981 0.0167001
264 2 0.271746 0.243163 0.00463443
265 1 0.808869 0.203599 0.397538
266 2 0.805992 0.173176 0.387862
267 2 0.803335 0.226554 0.381923
268 1 0.61106 0.337787 0.359361
269 2 0.607171 0.34392 0.329271
270 2 0.613974 0.305941 0.360993
271 1 0.886471 0.815565 0.751192
272 2 0.894354 0.80252 0.735364
273 2 0.889294 0.82641 0.781274
274 1 0.847189 0.632325 0.299375
275 2 0.840166 0.645795 0.318912
276 2 0.848877 0.652368 0.273341
277 1 0.884484 0.646857 0.278776
278 2 0.886266 0.637403 0.310183
279 2 0.87816 0.625342 0.264496
280 1 0.361187 0.711775 0.246211
281 2 0.368779 0.711274 0.267902
282 2 0.354156 0.690181 0.255982
283 1 0.309748 0.470025 0.594782
284 2 0.313506 0.473551 0.625471
285 2 0.300736 0.4844 0.593324
286 1 0.981774 0.113745 0.963724
287 2 0.98096 0.146748 0.967541
288 2 0.983712 0.106749 0.931779
289 1 0.372228 0.340972 0.404109
290 2 0.375469 0.358426 0.430372
291 2 0.363365 0.352858 0.394262
292 1 0.106479 0.297169 0.699631
293 2 0.109289 0.280744 0.67218
294 2 0.0979637 0.284111 0.711249
295 1 0.221495 0.43745 0.629453
296 2 0.22423 0.442657 0.597817
297 2 0.216943 0.464677 0.641268
298 1 0.3514 0.382314 0.287996
299 2 0.346583 0.357567 0.272475
300 2 0.350152 0.379322 0.320933
ITEM: TIMESTEP
9600
ITEM: NUMBER OF ATOMS
300
ITEM: BOX BOUNDS pp ff pp
0.0000000000000000e+00 1.0000000000000000e+02
0.0000000000000000e+00 3.0000000000000000e+01
0.0000000000000000e+00 3.0000000000000000e+01
ITEM: ATOMS id type xs ys zs
1 1 0.311211 0.657073 0.276965
2 2 0.306718 0.685986 0.269833
3 2 0.304434 0.63537 0.288353
4 1 0.623879 0.249628 0.371948
5 2 0.633825 0.253076 0.371963
6 2 0.621538 0.217252 0.373363
7 1 0.0216991 0.102943 0.948145
8 2 0.0286853 0.120847 0.9639
9 2 0.0142545 0.0959432 0.969271
10 1 0.543506 0.291294 0.298002
11 2 0.540793 0.320784 0.310636
12 2 0.537196 0.267726 0.308645
13 1 0.856997 0.694546 0.219015
14 2 0.863413 0.718817 0.227055
15 2 0.853711 0.699251 0.187887
16 1 0.25827 0.463106 0.66063
17 2 0.257809 0.434196 0.644109
18 2 0.253781 0.459796 0.690231
19 1 0.253768 0.389934 0.619298
20 2 0.246726 0.378985 0.64028
21 2 0.250372 0.388055 0.588003
22 1 0.164543 0.401179 0.683504
23 2 0.161044 0.37147 0.67389
24 2 0.157625 0.416765 0.701842
25 1 0.301089 0.752041 0.273628
26 2 0.295869 0.777554 0.261084
27 2 0.30949 0.747962 0.25601
28 1 0.574425 0.429593 0.303075
29 2 0.583212 0.415006 0.296719
30 2 0.56942 0.411639 0.325667
31 1 0.563165 0.378913 0.369748
32 2 0.553179 0.380677 0.369711
33 2 0.566838 0.400447 0.392054
34 1 0.187823 0.395271 0.773491
35 2 0.185671 0.365574 0.76016
36 2 0.181734 0.418398 0.760674
37 1 0.2653 0.377613 0.521813
38 2 0.274586 0.37055 0.511651
39 2 0.262167 0.40559 0.507002
40 1 0.315995 0.458843 0.523719
41 2 0.313485 0.47194 0.553208
42 2 0.325071 0.445015 0.525885
43 1 0.164017 0.527859 0.649979
44 2 0.16485 0.560334 0.642995
45 2 0.173129 0.514709 0.653926
46 1 0.55075 0.401712 0.262217
47 2 0.552318 0.376177 0.241438
48 2 0.558899 0.421009 0.263158
49 1 0.551395 0.328567 0.206342
50 2 0.554887 0.314207 0.178604
51 2 0.547986 0.305078 0.227086
52 1 0.907091 0.775216 0.751697
53 2 0.907716 0.766079 0.719708
54 2 0.905187 0.74844 0.770509
55 1 0.78264 0.626465 0.846499
56 2 0.777094 0.602042 0.833354
57 2 0.776682 0.65135 0.85637
58 1 0.264866 0.555896 0.66936
59 2 0.26218 0.523788 0.66951
60 2 0.266969 0.565622 0.700463
61 1 0.232172 0.40134 0.689904
62 2 0.224995 0.38722 0.708326
63 2 0.228566 0.428726 0.675183
64 1 0.288941 0.473224 0.51358
65 2 0.298793 0.47098 0.508322
66 2 0.287191 0.476354 0.546249
67 1 0.344714 0.57225 0.202805
68 2 0.354267 0.580906 0.207504
69 2 0.342774 0.544165 0.219554
70 1 0.854017 0.733228 0.138215
71 2 0.850307 0.761114 0.124776
72 2 0.858331 0.714852 0.114412
73 1 0.979841 0.0907819 0.866293
74 2 0.975698 0.0776178 0.83896
75 2 0.9898 0.0887777 0.864037
76 1 0.879496 0.867785 0.633208
77 2 0.87525 0.843605 0.61515
78 2 0.873427 0.876179 0.658335
79 1 0.234073 0.428985 0.5482
80 2 0.240285 0.424878 0.522404
81 2 0.224988 0.437184 0.536941
82 1 0.601927 0.406985 0.390046
83 2 0.607133 0.378675 0.38711
84 2 0.607913 0.432944 0.383787
85 1 0.285272 0.483953 0.608919
86 2 0.284487 0.454242 0.623802
87 2 0.278609 0.504999 0.622144
88 1 0.459948 0.614595 0.789847
89 2 0.454182 0.620988 0.763375
90 2 0.460323 0.641537 0.809436
91 1 0.339934 0.491215 0.237389
92 2 0.344567 0.463744 0.226528
93 2 0.339486 0.490693 0.270684
94 1 0.444196 0.6401 0.905124
95 2 0.441339 0.616415 0.883688
96 2 0.445757 0.626505 0.935111
97 1 0.577657 0.438714 0.422303
98 2 0.585613 0.435881 0.40231
99 2 0.580716 0.443177 0.453722
100 1 0.183046 0.322845 0.714643
101 2 0.188284 0.344135 0.695852
102 2 0.173929 0.318819 0.701556
103 1 0.303234 0.369697 0.691965
104 2 0.303845 0.33671 0.696303
105 2 0.295419 0.376742 0.672398
106 1 0.260333 0.482565 0.508321
107 2 0.258122 0.503949 0.532807
108 2 0.270236 0.481864 0.503743
109 1 0.204536 0.519302 0.622256
110 2 0.203354 0.512602 0.589842
111 2 0.197047 0.505567 0.639554
112 1 0.360027 0.49111 0.929008
113 2 0.367967 0.471117 0.925718
114 2 0.360917 0.508956 0.957005
115 1 0.440795 0.565559 0.852716
116 2 0.448234 0.579512 0.835349
117 2 0.441738 0.532385 0.851876
118 1 0.373482 0.409976 0.92437
119 2 0.378294 0.39751 0.950797
120 2 0.368733 0.385391 0.908366
121 1 -9.14783e-05 0.118559 0.0104607
122 2 0.99143 0.114272 0.993312
123 2 0.997803 0.121349 0.042927
124 1 0.154108 0.312912 0.699974
125 2 0.153749 0.295397 0.671639
126 2 0.144806 0.319614 0.71021
127 1 0.908904 0.860213 0.635083
128 2 0.911724 0.892191 0.634654
129 2 0.899759 0.857771 0.648342
130 1 0.619739 0.154317 0.382065
131 2 0.611358 0.156335 0.400133
132 2 0.618375 0.132905 0.356926
133 1 0.229036 0.510913 0.776187
134 2 0.226104 0.521482 0.746121
135 2 0.221612 0.493797 0.790531
136 1 0.24586 0.442324 0.757113
137 2 0.240815 0.425917 0.733467
138 2 0.240175 0.466963 0.769155
139 1 0.331621 0.624172 0.136905
140 2 0.337116 0.61834 0.164136
141 2 0.330041 0.595517 0.12071
142 1 0.351418 0.438677 0.862547
143 2 0.359638 0.435761 0.843791
144 2 0.353166 0.460009 0.887489
145 1 0.227546 0.550248 0.567184
146 2 0.236715 0.537916 0.562187
147 2 0.222307 0.548482 0.538848
148 1 0.316788 0.446797 0.688963
149 2 0.31177 0.418503 0.694511
150 2 0.322105 0.454721 0.716058
151 1 0.872534 0.591264 0.183934
152 2 0.871183 0.62048 0.199336
153 2 0.87027 0.566411 0.204826
154 1 0.327444 0.741318 0.21881
155 2 0.335211 0.72754 0.234656
156 2 0.328731 0.738384 0.185884
157 1 0.903634 0.759018 0.664117
158 2 0.908061 0.7856 0.65045
159 2 0.894635 0.767722 0.675754
160 1 0.801847 0.310356 0.404992
161 2 0.800602 0.343426 0.40552
162 2 0.811528 0.30314 0.409214
163 1 0.596154 0.346608 0.292597
164 2 0.587123 0.34194 0.306127
165 2 0.597074 0.327497 0.26546
166 1 0.282259 0.390507 0.62019
167 2 0.272284 0.388366 0.619172
168 2 0.286147 0.374791 0.593805
169 1 0.010929 0.131909 0.872
170 2 0.00762227 0.161722 0.882041
171 2 0.0171289 0.119393 0.894965
172 1 0.128729 0.349944 0.731011
173 2 0.126104 0.378467 0.716145
174 2 0.131247 0.356045 0.762688
175 1 0.571591 0.31376 0.307046
176 2 0.562979 0.300628 0.29634
177 2 0.569785 0.334261 0.33263
178 1 0.338896 0.635226 0.294714
179 2 0.34093 0.615466 0.26874
180 2 0.329747 0.648202 0.291141
181 1 0.186442 0.460905 0.673454
182 2 0.178066 0.442702 0.672958
183 2 0.194384 0.440674 0.672458
184 1 0.475345 0.0932348 0.862117
185 2 0.465369 0.0929456 0.859829
186 2 0.478037 0.0896713 0.894021
187 1 0.865675 0.687731 0.0660709
188 2 0.869929 0.659082 0.0755212
189 2 0.865349 0.68914 0.0327852
190 1 0.324022 0.435776 0.423131
191 2 0.31475 0.423954 0.419101
192 2 0.32424 0.456235 0.449437
193 1 0.874929 0.604394 0.0947616
194 2 0.874252 0.59149 0.125413
195 2 0.881114 0.585763 0.0763525
196 1 0.227318 0.547577 0.687621
197 2 0.221722 0.538153 0.661652
198 2 0.234141 0.569742 0.6775
199 1 0.199782 0.467721 0.545401
200 2 0.197458 0.44071 0.563331
201 2 0.192684 0.473039 0.522532
202 1 0.209959 0.448323 0.813182
203 2 0.204027 0.425444 0.799159
204 2 0.204653 0.466583 0.834742
205 1 0.536511 0.370391 0.335515
206 2 0.526775 0.377998 0.335725
207 2 0.541109 0.387755 0.311543
208 1 0.82716 0.272742 0.408723
209 2 0.821272 0.248189 0.397633
210 2 0.836704 0.262842 0.40773
211 1 0.451079 0.476306 0.832091
212 2 0.459312 0.487323 0.816712
213 2 0.4515 0.443122 0.834906
214 1 0.353021 0.392069 0.221807
215 2 0.358733 0.383007 0.247621
216 2 0.356132 0.376363 0.194296
217 1 0.256721 0.534405 0.772532
218 2 0.247184 0.531575 0.782155
219 2 0.261163 0.504586 0.774188
220 1 0.911665 0.671395 0.656796
221 2 0.908115 0.702436 0.659536
222 2 0.921627 0.672364 0.654052
223 1 0.203939 0.387191 0.662117
224 2 0.208947 0.370823 0.685877
225 2 0.210407 0.403515 0.642628
226 1 0.361768 0.346537 0.872461
227 2 0.356775 0.317739 0.870256
228 2 0.357327 0.369422 0.853273
229 1 0.878244 0.781623 0.693188
230 2 0.880796 0.800723 0.719148
231 2 0.868633 0.772817 0.695899
232 1 0.456322 0.689863 0.838189
233 2 0.452737 0.685043 0.86893
234 2 0.458595 0.72207 0.834137
235 1 0.346516 0.359537 0.385444
236 2 0.342819 0.389518 0.393213
237 2 0.34082 0.335824 0.399165
238 1 0.144707 0.477307 0.701385
239 2 0.152677 0.490017 0.685768
240 2 0.139564 0.501902 0.715954
241 1 0.98096 0.0668747 0.772967
242 2 0.977541 0.0454394 0.750125
243 2 0.984828 0.0935583 0.757707
244 1 0.215436 0.358656 0.742593
245 2 0.20658 0.363554 0.757279
246 2 0.221051 0.338709 0.761646
247 1 0.325962 0.71712 0.13102
248 2 0.320976 0.728057 0.104275
249 2 0.324283 0.684503 0.135007
250 1 0.859676 0.567477 0.277652
251 2 0.854427 0.544445 0.294219
252 2 0.854509 0.596001 0.276759
253 1 0.253076 0.512743 0.588656
254 2 0.254805 0.542168 0.603218
255 2 0.253503 0.488551 0.611544
256 1 0.47145 0.528699 0.788372
257 2 0.466969 0.558098 0.793237
258 2 0.47952 0.53295 0.769152
259 1 0.238637 0.461914 0.442792
260 2 0.246197 0.475528 0.459841
261 2 0.242143 0.448187 0.414755
262 1 0.272523 0.265885 0.963506
263 2 0.268332 0.294401 0.953365
264 2 0.265694 0.24154 0.962916
265 1 0.809349 0.217642 0.380959
266 2 0.803642 0.194282 0.366693
267 2 0.803815 0.244689 0.387229
268 1 0.618882 0.340568 0.348182
269 2 0.610693 0.340935 0.329055
270 2 0.620403 0.309708 0.359717
271 1 0.888231 0.835287 0.773217
272 2 0.895481 0.818528 0.757527
273 2 0.890281 0.836724 0.80581
274 1 0.842868 0.64022 0.280312
275 2 0.834135 0.6522 0.291272
276 2 0.846704 0.661084 0.257677
277 1 0.887335 0.599205 0.277003
278 2 0.878296 0.586501 0.283473
279 2 0.887593 0.610323 0.24559
280 1 0.347734 0.719384 0.274731
281 2 0.347377 0.742467 0.298749
282 2 0.345878 0.689372 0.287849
283 1 0.311669 0.485021 0.604895
284 2 0.315205 0.480607 0.635761
285 2 0.301704 0.48761 0.60595
286 1 0.978852 0.11158 0.956444
287 2 0.977356 0.140368 0.940396
288 2 0.97781 0.0862143 0.935099
289 1 0.374273 0.34853 0.379968
290 2 0.379164 0.373024 0.395634
291 2 0.364591 0.356487 0.377471
292 1 0.102099 0.309638 0.702726
293 2 0.0955308 0.301543 0.678929
294 2 0.110864 0.317499 0.688736
295 1 0.221073 0.44934 0.625733
296 2 0.227488 0.446297 0.600342
297 2 0.217201 0.480073 0.625766
298 1 0.364924 0.349199 0.296925
299 2 0.373054 0.336943 0.311973
300 2 0.358023 0.3567 0.319852
ITEM: TIMESTEP
9700
ITEM: NUMBER OF ATOMS
300
ITEM: BOX BOUNDS pp ff pp
0.0000000000000000e+00 1.0000000000000000e+02
0.0000000000000000e+00 3.0000000000000000e+01
0.0000000000000000e+00 3.0000000000000000e+01
ITEM: ATOMS id type xs ys zs
1 1 0.302479 0.665411 0.30083
2 2 0.302243 0.698715 0.29967
3 2 0.297988 0.654909 0.328699
4 1 0.627641 0.263554 0.362597
5 2 0.637574 0.263905 0.358763
6 2 0.624719 0.233189 0.372303
7 1 0.0218342 0.126911 0.950997
8 2 0.0285154 0.117729 0.974037
9 2 0.0126939 0.127264 0.964515
10 1 0.54345 0.289803 0.31581
11 2 0.541814 0.320295 0.328123
12 2 0.538495 0.267331 0.334068
13 1 0.861885 0.717103 0.20983
14 2 0.867858 0.740322 0.223081
15 2 0.860147 0.724387 0.177822
16 1 0.261307 0.451248 0.67431
17 2 0.259025 0.430433 0.649411
18 2 0.255842 0.443587 0.701154
19 1 0.253334 0.376819 0.623243
20 2 0.246497 0.365722 0.644892
21 2 0.249845 0.373476 0.592183
22 1 0.154745 0.410601 0.648812
23 2 0.154653 0.381673 0.66537
24 2 0.148616 0.432227 0.663849
25 1 0.304967 0.756506 0.291431
26 2 0.307334 0.78175 0.311719
27 2 0.309329 0.761113 0.261791
28 1 0.583128 0.418715 0.289696
29 2 0.588187 0.442619 0.305675
30 2 0.577848 0.400923 0.311712
31 1 0.566993 0.379164 0.358804
32 2 0.557037 0.377008 0.361093
33 2 0.570577 0.395298 0.385413
34 1 0.192951 0.382847 0.819816
35 2 0.187343 0.376389 0.792983
36 2 0.187621 0.376989 0.847404
37 1 0.253106 0.375523 0.533605
38 2 0.250091 0.344451 0.526927
39 2 0.260024 0.38476 0.511378
40 1 0.320438 0.451177 0.530192
41 2 0.320942 0.470069 0.557604
42 2 0.325402 0.422695 0.535297
43 1 0.165327 0.527379 0.659961
44 2 0.171367 0.553936 0.659264
45 2 0.170827 0.499542 0.660251
46 1 0.54989 0.404956 0.253259
47 2 0.549489 0.376721 0.235591
48 2 0.558292 0.421418 0.245792
49 1 0.547568 0.32146 0.222654
50 2 0.55544 0.305347 0.209884
51 2 0.544739 0.306636 0.25098
52 1 0.905558 0.76158 0.791724
53 2 0.905308 0.769908 0.759458
54 2 0.903275 0.729301 0.795067
55 1 0.776599 0.616192 0.801087
56 2 0.783847 0.600519 0.817873
57 2 0.780058 0.625676 0.771284
58 1 0.267937 0.537099 0.68024
59 2 0.265431 0.506567 0.669792
60 2 0.265216 0.540808 0.7121
61 1 0.233608 0.363882 0.688366
62 2 0.226545 0.351709 0.708582
63 2 0.229821 0.389023 0.670485
64 1 0.293658 0.477149 0.534558
65 2 0.303438 0.473844 0.528429
66 2 0.292046 0.475294 0.567403
67 1 0.352135 0.563134 0.195773
68 2 0.359874 0.578664 0.210071
69 2 0.354058 0.530484 0.193769
70 1 0.848841 0.723375 0.12891
71 2 0.84035 0.709159 0.118526
72 2 0.856157 0.71675 0.107172
73 1 0.983728 0.0971986 0.86106
74 2 0.981357 0.0871851 0.830265
75 2 0.991332 0.118794 0.85956
76 1 0.891482 0.88306 0.676901
77 2 0.890086 0.907826 0.698721
78 2 0.88446 0.859754 0.681391
79 1 0.230942 0.432321 0.521035
80 2 0.239651 0.416649 0.525796
81 2 0.231926 0.454546 0.49641
82 1 0.604571 0.403318 0.400751
83 2 0.603424 0.372712 0.388112
84 2 0.614143 0.407931 0.409228
85 1 0.287618 0.492791 0.627881
86 2 0.280464 0.473338 0.640693
87 2 0.285846 0.524531 0.636176
88 1 0.458513 0.622433 0.78029
89 2 0.452598 0.638225 0.75854
90 2 0.460966 0.643241 0.805014
91 1 0.352347 0.473707 0.198303
92 2 0.359373 0.452489 0.1877
93 2 0.346734 0.458884 0.221569
94 1 0.453598 0.619864 0.934847
95 2 0.451214 0.594563 0.914651
96 2 0.457383 0.607854 0.963266
97 1 0.579708 0.403029 0.436157
98 2 0.589008 0.405836 0.424232
99 2 0.579994 0.389029 0.466393
100 1 0.177626 0.371874 0.738441
101 2 0.179758 0.378825 0.706625
102 2 0.168028 0.362864 0.740966
103 1 0.3043 0.355157 0.658706
104 2 0.307853 0.331885 0.637986
105 2 0.294343 0.356614 0.655972
106 1 0.267667 0.488479 0.511627
107 2 0.263408 0.501506 0.538827
108 2 0.277563 0.493037 0.513047
109 1 0.194678 0.518481 0.622036
110 2 0.19938 0.507202 0.594866
111 2 0.189848 0.493317 0.636824
112 1 0.355649 0.46991 0.920028
113 2 0.364333 0.463777 0.904682
114 2 0.357412 0.47962 0.951369
115 1 0.449456 0.567576 0.858314
116 2 0.45289 0.584871 0.832218
117 2 0.44643 0.53748 0.848135
118 1 0.381015 0.423735 0.891503
119 2 0.38954 0.406641 0.894902
120 2 0.373451 0.402502 0.886562
121 1 0.996006 0.126262 0.98795
122 2 0.987854 0.108934 0.979442
123 2 0.993274 0.154163 0.00375059
124 1 0.153815 0.334686 0.718956
125 2 0.154122 0.303411 0.707472
126 2 0.144352 0.345456 0.719067
127 1 0.915327 0.860598 0.62991
128 2 0.915651 0.869605 0.597834
129 2 0.907754 0.87628 0.645008
130 1 0.616463 0.190059 0.400995
131 2 0.616063 0.156808 0.402929
132 2 0.607189 0.202494 0.401973
133 1 0.230704 0.49253 0.752768
134 2 0.226031 0.503087 0.725253
135 2 0.223946 0.485814 0.776402
136 1 0.248173 0.421029 0.765332
137 2 0.244877 0.390423 0.758003
138 2 0.240671 0.442851 0.762218
139 1 0.329631 0.599938 0.147988
140 2 0.336065 0.588202 0.170648
141 2 0.330252 0.581637 0.120205
142 1 0.346463 0.431575 0.840572
143 2 0.347787 0.456041 0.818367
144 2 0.345672 0.444642 0.871124
145 1 0.228518 0.537629 0.528605
146 2 0.233605 0.552681 0.553038
147 2 0.234807 0.529169 0.504109
148 1 0.32073 0.422444 0.672978
149 2 0.313452 0.401487 0.663854
150 2 0.325181 0.410946 0.700524
151 1 0.864925 0.620802 0.167038
152 2 0.86287 0.65111 0.179104
153 2 0.863303 0.597945 0.19069
154 1 0.323193 0.772625 0.207238
155 2 0.330642 0.772018 0.229467
156 2 0.324074 0.746627 0.186584
157 1 0.906387 0.77557 0.702586
158 2 0.913446 0.797413 0.693619
159 2 0.897465 0.786327 0.692055
160 1 0.80372 0.302679 0.446994
161 2 0.802974 0.332711 0.461243
162 2 0.813356 0.295537 0.441666
163 1 0.595121 0.33237 0.28588
164 2 0.587177 0.314282 0.294975
165 2 0.592377 0.364156 0.281743
166 1 0.278982 0.359548 0.625397
167 2 0.269029 0.361375 0.622736
168 2 0.282768 0.390261 0.628325
169 1 0.00730002 0.146949 0.863534
170 2 0.0130452 0.171432 0.851495
171 2 0.0124896 0.129285 0.885891
172 1 0.129219 0.368498 0.731098
173 2 0.132766 0.396201 0.745376
174 2 0.119268 0.370599 0.728555
175 1 0.569715 0.297665 0.302303
176 2 0.560603 0.284147 0.304703
177 2 0.570354 0.323911 0.322741
178 1 0.328435 0.65132 0.255529
179 2 0.328054 0.649763 0.222256
180 2 0.319201 0.648366 0.267973
181 1 0.181804 0.444445 0.6575
182 2 0.174135 0.427111 0.644961
183 2 0.18884 0.423384 0.668335
184 1 0.462905 0.0979646 0.881127
185 2 0.465355 0.0741068 0.902926
186 2 0.464115 0.127849 0.895332
187 1 0.869857 0.701384 0.0667527
188 2 0.87543 0.674635 0.0738631
189 2 0.874668 0.720486 0.044638
190 1 0.334569 0.459149 0.449339
191 2 0.331167 0.489884 0.443179
192 2 0.330127 0.447116 0.476673
193 1 0.879831 0.615839 0.0853835
194 2 0.874182 0.615604 0.112888
195 2 0.88434 0.586286 0.081956
196 1 0.217365 0.534151 0.676361
197 2 0.210167 0.528225 0.653993
198 2 0.215045 0.561352 0.694007
199 1 0.209333 0.489993 0.557114
200 2 0.20623 0.46938 0.533046
201 2 0.21604 0.511329 0.544622
202 1 0.208571 0.47329 0.800499
203 2 0.207013 0.441681 0.809722
204 2 0.199791 0.488026 0.794374
205 1 0.539501 0.375482 0.333866
206 2 0.533765 0.40026 0.345336
207 2 0.543583 0.384491 0.3048
208 1 0.828388 0.276003 0.409637
209 2 0.821116 0.264612 0.389792
210 2 0.836948 0.260342 0.40244
211 1 0.443116 0.497199 0.809234
212 2 0.451561 0.506604 0.794061
213 2 0.436907 0.483685 0.786869
214 1 0.343853 0.385567 0.242484
215 2 0.347351 0.354443 0.239941
216 2 0.334567 0.384861 0.254837
217 1 0.258142 0.524614 0.767788
218 2 0.24817 0.522958 0.769657
219 2 0.262148 0.499034 0.784474
220 1 0.91128 0.68546 0.659765
221 2 0.909067 0.713901 0.675508
222 2 0.905591 0.682614 0.632499
223 1 0.20214 0.384128 0.65058
224 2 0.207167 0.355354 0.65212
225 2 0.207191 0.405791 0.63165
226 1 0.361796 0.358043 0.878512
227 2 0.356363 0.334537 0.893697
228 2 0.356399 0.371895 0.854108
229 1 0.87818 0.80395 0.704544
230 2 0.882263 0.803101 0.73496
231 2 0.869243 0.789015 0.70528
232 1 0.456512 0.675479 0.859017
233 2 0.456255 0.649694 0.880124
234 2 0.452164 0.701934 0.873202
235 1 0.34792 0.386324 0.390218
236 2 0.346947 0.415832 0.405379
237 2 0.339542 0.37934 0.373412
238 1 0.147274 0.494499 0.720396
239 2 0.150424 0.504516 0.690386
240 2 0.150801 0.515175 0.74375
241 1 0.986324 0.071533 0.774337
242 2 0.994222 0.060093 0.757389
243 2 0.981674 0.0949143 0.756332
244 1 0.210857 0.320594 0.74712
245 2 0.202302 0.336501 0.753825
246 2 0.212844 0.298895 0.771541
247 1 0.327434 0.695543 0.158864
248 2 0.328698 0.714261 0.131606
249 2 0.330292 0.664253 0.152436
250 1 0.858135 0.578133 0.246585
251 2 0.853798 0.552401 0.262078
252 2 0.851744 0.603741 0.245336
253 1 0.253006 0.530346 0.594031
254 2 0.259476 0.547124 0.613121
255 2 0.248619 0.506479 0.61213
256 1 0.463084 0.53377 0.763839
257 2 0.463311 0.566987 0.766517
258 2 0.472402 0.5222 0.760297
259 1 0.243329 0.496166 0.466869
260 2 0.251921 0.490149 0.482828
261 2 0.244417 0.522836 0.447205
262 1 0.271392 0.256485 0.944637
263 2 0.281312 0.256635 0.948839
264 2 0.268377 0.286615 0.934523
265 1 0.807573 0.24335 0.370587
266 2 0.801548 0.225109 0.35122
267 2 0.802295 0.256279 0.395775
268 1 0.605886 0.319082 0.373219
269 2 0.603805 0.328504 0.342007
270 2 0.613907 0.299173 0.373132
271 1 0.887629 0.823461 0.792192
272 2 0.896434 0.809482 0.799557
273 2 0.881637 0.822061 0.818842
274 1 0.84446 0.653795 0.238746
275 2 0.834828 0.662727 0.239499
276 2 0.850108 0.680547 0.232344
277 1 0.895395 0.561252 0.261534
278 2 0.886466 0.547558 0.267681
279 2 0.894131 0.590708 0.246511
280 1 0.337346 0.744257 0.281398
281 2 0.345033 0.742879 0.302675
282 2 0.332761 0.714648 0.280481
283 1 0.315711 0.48866 0.611335
284 2 0.3199 0.470703 0.6357
285 2 0.306313 0.496339 0.619748
286 1 0.972308 0.100983 0.949484
287 2 0.962794 0.110291 0.945161
288 2 0.97664 0.0965875 0.919763
289 1 0.373296 0.365124 0.362873
290 2 0.380615 0.374206 0.383695
291 2 0.364451 0.369031 0.377924
292 1 0.098798 0.325299 0.690732
293 2 0.0982677 0.313674 0.721923
294 2 0.0903424 0.317952 0.674523
295 1 0.225137 0.433698 0.627153
296 2 0.225934 0.434455 0.593934
297 2 0.225455 0.464801 0.639094
298 1 0.368337 0.33543 0.273761
299 2 0.371584 0.340904 0.304809
300 2 0.365314 0.364198 0.260274
ITEM: TIMESTEP
9800
ITEM: NUMBER OF ATOMS
300
ITEM: BOX BOUNDS pp ff pp
0.0000000000000000e+00 1.0000000000000000e+02
0.0000000000000000e+00 3.0000000000000000e+01
0.0000000000000000e+00 3.0000000000000000e+01
ITEM: ATOMS id type xs ys zs
1 1 0.297531 0.671401 0.302771
2 2 0.300732 0.701913 0.310917
3 2 0.288332 0.673432 0.289858
4 1 0.634292 0.274251 0.372112
5 2 0.643555 0.261713 0.372884
6 2 0.627675 0.249786 0.37722
7 1 0.0151243 0.142362 0.954893
8 2 0.0215096 0.12988 0.977305
9 2 0.00589322 0.142575 0.967709
10 1 0.538355 0.303906 0.338996
11 2 0.540199 0.336481 0.335499
12 2 0.533117 0.298831 0.366935
13 1 0.857613 0.735447 0.200971
14 2 0.860444 0.764801 0.213635
15 2 0.852928 0.740377 0.171939
16 1 0.272364 0.428604 0.666718
17 2 0.277346 0.401673 0.656227
18 2 0.266081 0.419922 0.691154
19 1 0.251126 0.351624 0.641261
20 2 0.242213 0.343486 0.653993
21 2 0.253056 0.383695 0.647681
22 1 0.153246 0.415497 0.642384
23 2 0.150569 0.395128 0.667213
24 2 0.14556 0.435316 0.634516
25 1 0.300688 0.76691 0.296025
26 2 0.307782 0.780249 0.315366
27 2 0.302114 0.776498 0.264456
28 1 0.586766 0.386263 0.281501
29 2 0.587112 0.418648 0.273692
30 2 0.580732 0.381866 0.307718
31 1 0.569211 0.36601 0.350272
32 2 0.559463 0.373243 0.348526
33 2 0.572047 0.36499 0.38222
34 1 0.191607 0.375639 0.819355
35 2 0.184651 0.395206 0.80555
36 2 0.187158 0.352031 0.837627
37 1 0.241846 0.384518 0.515874
38 2 0.247864 0.36013 0.505204
39 2 0.244191 0.392378 0.547311
40 1 0.329842 0.450971 0.531068
41 2 0.326359 0.466014 0.558454
42 2 0.32988 0.417965 0.535727
43 1 0.163493 0.500496 0.70634
44 2 0.160925 0.524958 0.685376
45 2 0.1711 0.483149 0.693412
46 1 0.545161 0.407521 0.244961
47 2 0.54908 0.377587 0.238293
48 2 0.538671 0.415792 0.220991
49 1 0.552618 0.320292 0.240714
50 2 0.561383 0.310681 0.253565
51 2 0.545201 0.303692 0.25569
52 1 0.905437 0.754318 0.789982
53 2 0.911033 0.774077 0.770675
54 2 0.908936 0.723127 0.788513
55 1 0.772218 0.603725 0.756281
56 2 0.767807 0.633103 0.750632
57 2 0.781566 0.604443 0.744468
58 1 0.266574 0.521074 0.68215
59 2 0.26774 0.488249 0.677855
60 2 0.261005 0.526608 0.709279
61 1 0.228973 0.362025 0.697252
62 2 0.222449 0.349743 0.719328
63 2 0.224945 0.388406 0.681926
64 1 0.289946 0.453085 0.566024
65 2 0.297491 0.448951 0.544541
66 2 0.293587 0.462104 0.595732
67 1 0.355426 0.521382 0.184516
68 2 0.363304 0.513036 0.203275
69 2 0.351011 0.493746 0.17308
70 1 0.851142 0.703709 0.116799
71 2 0.847859 0.672739 0.111124
72 2 0.859114 0.709792 0.097614
73 1 0.98574 0.113859 0.85553
74 2 0.985305 0.0960768 0.827373
75 2 0.995063 0.125057 0.86001
76 1 0.90374 0.90259 0.701663
77 2 0.905068 0.924838 0.726086
78 2 0.89677 0.880511 0.710822
79 1 0.228799 0.464276 0.527442
80 2 0.231005 0.433119 0.518153
81 2 0.234609 0.485697 0.510795
82 1 0.603824 0.380667 0.426736
83 2 0.606538 0.372902 0.395608
84 2 0.611813 0.379222 0.446734
85 1 0.29347 0.496403 0.650736
86 2 0.287487 0.473909 0.66514
87 2 0.289819 0.526995 0.655952
88 1 0.454096 0.623761 0.801777
89 2 0.44418 0.623026 0.806015
90 2 0.458001 0.648337 0.820156
91 1 0.355369 0.423374 0.201778
92 2 0.362582 0.402743 0.212142
93 2 0.346797 0.415751 0.217156
94 1 0.461275 0.604576 0.933054
95 2 0.456978 0.584871 0.910303
96 2 0.467054 0.586203 0.953116
97 1 0.576469 0.374805 0.438465
98 2 0.586096 0.380744 0.431671
99 2 0.575585 0.364466 0.470017
100 1 0.17559 0.416295 0.761967
101 2 0.175817 0.441365 0.740012
102 2 0.16799 0.395899 0.754673
103 1 0.301544 0.347599 0.65226
104 2 0.305681 0.320702 0.666314
105 2 0.2922 0.340448 0.642783
106 1 0.269345 0.493329 0.536369
107 2 0.263755 0.504931 0.561456
108 2 0.276887 0.475217 0.548656
109 1 0.197092 0.497609 0.637915
110 2 0.199353 0.498347 0.605454
111 2 0.190572 0.47301 0.643719
112 1 0.354901 0.479531 0.933858
113 2 0.362814 0.461718 0.923963
114 2 0.353485 0.475163 0.966565
115 1 0.451813 0.556342 0.866242
116 2 0.456292 0.576998 0.844757
117 2 0.44857 0.529321 0.84999
118 1 0.375204 0.440947 0.869211
119 2 0.382609 0.436222 0.847313
120 2 0.372347 0.411558 0.881729
121 1 0.98999 0.142732 0.98522
122 2 0.987357 0.116922 0.966037
123 2 0.985493 0.170382 0.97418
124 1 0.156952 0.348319 0.737977
125 2 0.157778 0.332129 0.766984
126 2 0.148509 0.366179 0.737849
127 1 0.919554 0.853444 0.652192
128 2 0.923808 0.86781 0.625665
129 2 0.913902 0.875808 0.668194
130 1 0.608821 0.235704 0.405497
131 2 0.608306 0.264945 0.389587
132 2 0.599594 0.223661 0.409962
133 1 0.225933 0.475103 0.73316
134 2 0.223301 0.491785 0.705667
135 2 0.218116 0.473332 0.753871
136 1 0.251343 0.415175 0.714874
137 2 0.243701 0.394586 0.70869
138 2 0.24792 0.442901 0.729442
139 1 0.334128 0.608662 0.153658
140 2 0.341994 0.597805 0.171144
141 2 0.326046 0.590797 0.161784
142 1 0.339767 0.434398 0.856326
143 2 0.340341 0.446046 0.825153
144 2 0.345377 0.453309 0.876421
145 1 0.236211 0.566223 0.545546
146 2 0.239936 0.539823 0.561671
147 2 0.242282 0.574376 0.520344
148 1 0.3231 0.404952 0.650732
149 2 0.314938 0.386709 0.656904
150 2 0.329957 0.399138 0.67429
151 1 0.866757 0.629973 0.145771
152 2 0.864566 0.660276 0.157579
153 2 0.866338 0.607749 0.170575
154 1 0.31757 0.764794 0.201478
155 2 0.32571 0.780587 0.212681
156 2 0.320278 0.741455 0.179458
157 1 0.907456 0.792944 0.711566
158 2 0.911861 0.806982 0.685136
159 2 0.89794 0.803035 0.713317
160 1 0.807336 0.277574 0.469689
161 2 0.806787 0.291618 0.499864
162 2 0.816376 0.283237 0.456608
163 1 0.598364 0.305563 0.279451
164 2 0.590804 0.285149 0.271756
165 2 0.594832 0.336339 0.28449
166 1 0.275823 0.336158 0.617119
167 2 0.266197 0.342131 0.623901
168 2 0.278268 0.350706 0.588257
169 1 0.00890134 0.167609 0.854865
170 2 0.0167093 0.167089 0.834045
171 2 0.0121528 0.17189 0.886095
172 1 0.133914 0.395771 0.727247
173 2 0.132936 0.427252 0.716787
174 2 0.125147 0.380005 0.724307
175 1 0.566102 0.279067 0.318319
176 2 0.556284 0.274946 0.323125
177 2 0.568862 0.309049 0.329612
178 1 0.321979 0.674175 0.258668
179 2 0.319559 0.681655 0.227202
180 2 0.314222 0.659283 0.273527
181 1 0.178844 0.435084 0.644125
182 2 0.169382 0.427136 0.636832
183 2 0.184012 0.407309 0.650676
184 1 0.451642 0.105208 0.900917
185 2 0.442491 0.0944668 0.908995
186 2 0.458491 0.0850718 0.914499
187 1 0.872559 0.71967 0.0727749
188 2 0.877772 0.691399 0.0759043
189 2 0.87692 0.739186 0.0499964
190 1 0.343724 0.478077 0.455552
191 2 0.339699 0.504564 0.440402
192 2 0.339246 0.473364 0.484981
193 1 0.883187 0.634548 0.0779873
194 2 0.875964 0.635031 0.101035
195 2 0.886025 0.603066 0.0724597
196 1 0.222427 0.525628 0.655956
197 2 0.212882 0.525746 0.646019
198 2 0.227411 0.549936 0.640326
199 1 0.206894 0.522445 0.546806
200 2 0.213614 0.498224 0.542045
201 2 0.210998 0.551879 0.539214
202 1 0.20307 0.464863 0.801768
203 2 0.20074 0.433172 0.808586
204 2 0.194803 0.483575 0.803047
205 1 0.541832 0.391983 0.333044
206 2 0.536134 0.414335 0.348877
207 2 0.544618 0.404251 0.303474
208 1 0.828135 0.288536 0.412342
209 2 0.819556 0.287147 0.395269
210 2 0.835362 0.273472 0.394911
211 1 0.444366 0.513357 0.787642
212 2 0.448763 0.529879 0.762676
213 2 0.435253 0.503485 0.77811
214 1 0.343568 0.376323 0.269836
215 2 0.35105 0.38351 0.290751
216 2 0.336798 0.357457 0.285519
217 1 0.247742 0.516906 0.749947
218 2 0.238524 0.507567 0.74102
219 2 0.24764 0.527453 0.781566
220 1 0.908874 0.694131 0.684154
221 2 0.910231 0.721155 0.703137
222 2 0.916792 0.690015 0.664214
223 1 0.204379 0.368632 0.630407
224 2 0.208082 0.342497 0.647011
225 2 0.211883 0.388274 0.620424
226 1 0.359233 0.361086 0.875035
227 2 0.352648 0.339223 0.88734
228 2 0.354359 0.387698 0.863245
229 1 0.884416 0.837322 0.728431
230 2 0.883869 0.827722 0.7603
231 2 0.875241 0.844328 0.71717
232 1 0.466688 0.673267 0.871464
233 2 0.464646 0.655778 0.899012
234 2 0.468419 0.705065 0.879633
235 1 0.358336 0.401406 0.409464
236 2 0.356548 0.43338 0.416764
237 2 0.350832 0.382556 0.420872
238 1 0.133706 0.482482 0.714011
239 2 0.143304 0.473493 0.711423
240 2 0.133069 0.511389 0.730474
241 1 0.98795 0.0663823 0.769288
242 2 0.986528 0.0938651 0.75103
243 2 0.984009 0.0401404 0.753482
244 1 0.208443 0.329822 0.756106
245 2 0.204498 0.353918 0.775014
246 2 0.202358 0.303372 0.756118
247 1 0.32348 0.693213 0.142063
248 2 0.317586 0.68808 0.11563
249 2 0.330645 0.66997 0.142835
250 1 0.863407 0.586771 0.223708
251 2 0.856353 0.563823 0.229332
252 2 0.860218 0.616454 0.234527
253 1 0.250523 0.504392 0.609034
254 2 0.256544 0.511381 0.634714
255 2 0.243566 0.482482 0.618696
256 1 0.461966 0.567953 0.729814
257 2 0.461435 0.591796 0.75304
258 2 0.467987 0.577943 0.705144
259 1 0.24786 0.494222 0.481446
260 2 0.25683 0.493416 0.49616
261 2 0.247782 0.473115 0.455648
262 1 0.264042 0.240168 0.928912
263 2 0.259148 0.2111 0.929201
264 2 0.258878 0.262388 0.91099
265 1 0.805234 0.279029 0.375745
266 2 0.797763 0.278577 0.353593
267 2 0.80159 0.273216 0.406237
268 1 0.609652 0.31949 0.359102
269 2 0.606277 0.311345 0.3288
270 2 0.619652 0.319286 0.359005
271 1 0.884051 0.808368 0.810666
272 2 0.892006 0.789324 0.803938
273 2 0.875834 0.789387 0.811493
274 1 0.848655 0.663022 0.235777
275 2 0.838906 0.669452 0.239487
276 2 0.853382 0.690711 0.22597
277 1 0.887719 0.540671 0.230033
278 2 0.886055 0.555831 0.259196
279 2 0.879511 0.542655 0.211098
280 1 0.340705 0.751326 0.262939
281 2 0.349901 0.742916 0.272986
282 2 0.33443 0.726025 0.268717
283 1 0.31775 0.481523 0.604461
284 2 0.322743 0.462296 0.626012
285 2 0.310352 0.497303 0.620398
286 1 0.975493 0.0868526 0.929657
287 2 0.967321 0.070894 0.918957
288 2 0.979901 0.102197 0.903972
289 1 0.369109 0.377213 0.329688
290 2 0.378224 0.390478 0.326233
291 2 0.365396 0.385418 0.359531
292 1 0.106347 0.367656 0.696839
293 2 0.100009 0.349644 0.715286
294 2 0.101613 0.378979 0.669748
295 1 0.228412 0.428599 0.619625
296 2 0.227918 0.436285 0.587232
297 2 0.222517 0.449215 0.636947
298 1 0.37289 0.357718 0.236993
299 2 0.369117 0.354218 0.267664
300 2 0.372355 0.328601 0.220864
ITEM: TIMESTEP
9900
ITEM: NUMBER OF ATOMS
300
ITEM: BOX BOUNDS pp ff pp
0.0000000000000000e+00 1.0000000000000000e+02
0.0000000000000000e+00 3.0000000000000000e+01
0.0000000000000000e+00 3.0000000000000000e+01
ITEM: ATOMS id type xs ys zs
1 1 0.299731 0.687366 0.306786
2 2 0.297316 0.717141 0.294147
3 2 0.29239 0.676812 0.326811
4 1 0.637533 0.270183 0.392962
5 2 0.645798 0.251651 0.395902
6 2 0.629899 0.254715 0.40794
7 1 0.0104577 0.167592 0.948595
8 2 0.0158479 0.176718 0.975146
9 2 0.000731542 0.16843 0.956297
10 1 0.535982 0.321037 0.356852
11 2 0.538904 0.352337 0.350807
12 2 0.526382 0.317496 0.348217
13 1 0.849882 0.731532 0.186404
14 2 0.849149 0.764458 0.19099
15 2 0.85129 0.725141 0.154028
16 1 0.279174 0.417654 0.698099
17 2 0.284299 0.38904 0.69736
18 2 0.269713 0.412007 0.688901
19 1 0.254262 0.343634 0.617134
20 2 0.248271 0.321271 0.631701
21 2 0.25429 0.371762 0.635019
22 1 0.152599 0.400235 0.64237
23 2 0.145042 0.409065 0.622404
24 2 0.148949 0.388955 0.671281
25 1 0.29508 0.77276 0.275167
26 2 0.296589 0.803906 0.285925
27 2 0.29944 0.768792 0.245433
28 1 0.584124 0.353601 0.265259
29 2 0.582819 0.381001 0.24678
30 2 0.578322 0.35529 0.292356
31 1 0.5686 0.361334 0.339615
32 2 0.559762 0.376823 0.341459
33 2 0.572566 0.358937 0.37012
34 1 0.191133 0.386914 0.840138
35 2 0.185717 0.394552 0.813178
36 2 0.18575 0.367423 0.860368
37 1 0.227433 0.38409 0.534315
38 2 0.227264 0.351582 0.541665
39 2 0.236737 0.393069 0.526025
40 1 0.337189 0.467966 0.533058
41 2 0.331788 0.482172 0.55725
42 2 0.338515 0.435666 0.540007
43 1 0.16671 0.496838 0.683264
44 2 0.167689 0.499548 0.716326
45 2 0.173715 0.476189 0.67145
46 1 0.537689 0.397266 0.245544
47 2 0.543638 0.370473 0.245443
48 2 0.531307 0.39544 0.219947
49 1 0.555501 0.331585 0.252989
50 2 0.565093 0.339388 0.247687
51 2 0.554926 0.307771 0.276234
52 1 0.902347 0.725967 0.816843
53 2 0.905141 0.717234 0.786051
54 2 0.910442 0.728927 0.836191
55 1 0.76752 0.596712 0.712971
56 2 0.76917 0.568658 0.695829
57 2 0.775763 0.60492 0.729961
58 1 0.269661 0.493651 0.667825
59 2 0.276129 0.470133 0.677478
60 2 0.263002 0.499016 0.692107
61 1 0.227816 0.36155 0.673318
62 2 0.22099 0.355808 0.696991
63 2 0.225534 0.389714 0.657193
64 1 0.292591 0.411202 0.583318
65 2 0.291015 0.437748 0.563854
66 2 0.302418 0.40556 0.58581
67 1 0.351206 0.521567 0.184156
68 2 0.360284 0.526726 0.19715
69 2 0.348928 0.489174 0.186196
70 1 0.854005 0.72154 0.100851
71 2 0.847098 0.707274 0.0814177
72 2 0.861881 0.730381 0.0823151
73 1 0.988289 0.11566 0.833086
74 2 0.992468 0.0997666 0.807309
75 2 0.993967 0.141747 0.841597
76 1 0.910965 0.929551 0.721322
77 2 0.907486 0.960636 0.724537
78 2 0.906308 0.909599 0.74305
79 1 0.222278 0.469434 0.517986
80 2 0.223351 0.43637 0.515726
81 2 0.230811 0.484326 0.509031
82 1 0.601349 0.34721 0.42119
83 2 0.605947 0.360275 0.394627
84 2 0.606929 0.322556 0.433736
85 1 0.299607 0.508624 0.660737
86 2 0.300749 0.503852 0.693507
87 2 0.290061 0.516131 0.654227
88 1 0.454906 0.650214 0.819174
89 2 0.45006 0.672195 0.838334
90 2 0.463835 0.643527 0.832609
91 1 0.354262 0.420879 0.205976
92 2 0.362943 0.407877 0.21621
93 2 0.346705 0.402217 0.217304
94 1 0.464517 0.583165 0.916613
95 2 0.460942 0.568428 0.889191
96 2 0.464825 0.561068 0.941549
97 1 0.575403 0.357752 0.433
98 2 0.58489 0.348315 0.428309
99 2 0.574012 0.365517 0.465083
100 1 0.174188 0.415297 0.763289
101 2 0.176426 0.420535 0.731226
102 2 0.167854 0.389619 0.765734
103 1 0.306932 0.327893 0.661104
104 2 0.305619 0.302642 0.682419
105 2 0.298313 0.334352 0.645483
106 1 0.267606 0.464231 0.530953
107 2 0.262287 0.475954 0.55663
108 2 0.273889 0.440656 0.541756
109 1 0.194496 0.524094 0.609009
110 2 0.200717 0.537954 0.586893
111 2 0.185989 0.515467 0.593762
112 1 0.354831 0.481694 0.909824
113 2 0.362386 0.471796 0.890356
114 2 0.35849 0.49577 0.937468
115 1 0.451994 0.556171 0.842666
116 2 0.450741 0.586897 0.830436
117 2 0.450062 0.53376 0.818846
118 1 0.375855 0.447224 0.860846
119 2 0.385022 0.43516 0.866493
120 2 0.369559 0.422007 0.854941
121 1 0.981598 0.148642 0.987631
122 2 0.9796 0.124838 0.965267
123 2 0.973756 0.152404 0.00796956
124 1 0.150899 0.367478 0.788883
125 2 0.144113 0.363167 0.812985
126 2 0.146272 0.369481 0.7594
127 1 0.925698 0.868276 0.667978
128 2 0.934907 0.858631 0.676685
129 2 0.922879 0.893964 0.687028
130 1 0.608893 0.25145 0.418006
131 2 0.609465 0.270712 0.390868
132 2 0.601602 0.228991 0.414004
133 1 0.224372 0.471889 0.727758
134 2 0.222223 0.494022 0.703884
135 2 0.215968 0.463159 0.74358
136 1 0.25209 0.406323 0.687439
137 2 0.243699 0.388202 0.688046
138 2 0.251448 0.430817 0.709946
139 1 0.338908 0.607378 0.151768
140 2 0.343724 0.579447 0.160326
141 2 0.34556 0.631469 0.145522
142 1 0.334753 0.423815 0.896454
143 2 0.325101 0.431028 0.891551
144 2 0.339404 0.450371 0.90932
145 1 0.241599 0.568148 0.576271
146 2 0.243999 0.538205 0.58854
147 2 0.244626 0.570223 0.54457
148 1 0.324333 0.382533 0.624517
149 2 0.318103 0.363604 0.642447
150 2 0.333714 0.371785 0.628735
151 1 0.870529 0.61861 0.12412
152 2 0.864528 0.642964 0.134976
153 2 0.872289 0.597154 0.148948
154 1 0.313466 0.755421 0.203745
155 2 0.32172 0.760447 0.221881
156 2 0.313874 0.725256 0.189625
157 1 0.907472 0.793946 0.684862
158 2 0.914267 0.813051 0.669596
159 2 0.89918 0.811743 0.690386
160 1 0.808724 0.258592 0.477381
161 2 0.810798 0.238035 0.502694
162 2 0.817217 0.267282 0.462077
163 1 0.603276 0.289582 0.298077
164 2 0.601923 0.263149 0.278276
165 2 0.597275 0.314368 0.288248
166 1 0.282313 0.340883 0.627738
167 2 0.272664 0.332833 0.624304
168 2 0.284359 0.367619 0.609035
169 1 0.00941954 0.174931 0.854914
170 2 0.0187582 0.182255 0.845508
171 2 0.00920462 0.169672 0.887822
172 1 0.135257 0.390789 0.71133
173 2 0.137138 0.423525 0.710908
174 2 0.125414 0.385803 0.714453
175 1 0.559607 0.278028 0.32551
176 2 0.550078 0.277128 0.335583
177 2 0.563999 0.305529 0.337364
178 1 0.326856 0.664975 0.27444
179 2 0.325264 0.635704 0.259402
180 2 0.319324 0.671417 0.295395
181 1 0.179318 0.415121 0.668013
182 2 0.169635 0.40988 0.661535
183 2 0.184712 0.408879 0.640647
184 1 0.440208 0.108523 0.918315
185 2 0.445134 0.0808107 0.926886
186 2 0.442589 0.133107 0.939379
187 1 0.877691 0.735082 0.0520167
188 2 0.883215 0.710347 0.0646744
189 2 0.880531 0.741034 0.0206152
190 1 0.346353 0.4957 0.451113
191 2 0.348401 0.527963 0.446251
192 2 0.343516 0.490987 0.482727
193 1 0.889974 0.654075 0.0705433
194 2 0.881769 0.639837 0.0832071
195 2 0.897954 0.635271 0.0776077
196 1 0.215896 0.532913 0.665101
197 2 0.206729 0.525522 0.654023
198 2 0.218144 0.564341 0.656899
199 1 0.215011 0.547175 0.554054
200 2 0.215865 0.521324 0.533204
201 2 0.224118 0.558216 0.562272
202 1 0.200421 0.446384 0.777569
203 2 0.20061 0.421035 0.799206
204 2 0.190953 0.455734 0.772326
205 1 0.543656 0.402704 0.337273
206 2 0.544325 0.433945 0.34868
207 2 0.541797 0.403249 0.304525
208 1 0.827519 0.287853 0.420423
209 2 0.81895 0.296858 0.405789
210 2 0.835116 0.292729 0.399303
211 1 0.445931 0.508412 0.767759
212 2 0.449765 0.536599 0.755376
213 2 0.439916 0.494412 0.745109
214 1 0.333793 0.380062 0.29435
215 2 0.342999 0.371056 0.303741
216 2 0.329931 0.400902 0.316958
217 1 0.252571 0.473886 0.745306
218 2 0.242994 0.479707 0.752931
219 2 0.258313 0.480575 0.771763
220 1 0.908729 0.706061 0.72301
221 2 0.913053 0.734654 0.713749
222 2 0.902139 0.696655 0.699769
223 1 0.202382 0.367435 0.622979
224 2 0.207665 0.349551 0.644914
225 2 0.206981 0.366943 0.593385
226 1 0.358223 0.382891 0.855445
227 2 0.354792 0.366439 0.828805
228 2 0.351254 0.382835 0.879353
229 1 0.892304 0.87655 0.761966
230 2 0.890619 0.850307 0.781737
231 2 0.883757 0.893189 0.757223
232 1 0.475717 0.658333 0.886776
233 2 0.472315 0.62951 0.899093
234 2 0.483964 0.667423 0.903292
235 1 0.359995 0.421736 0.413832
236 2 0.356737 0.449201 0.429288
237 2 0.353619 0.396682 0.419456
238 1 0.141367 0.480404 0.701913
239 2 0.150704 0.478356 0.690147
240 2 0.140135 0.509612 0.717442
241 1 0.989889 0.0701723 0.760512
242 2 0.981857 0.0535569 0.771384
243 2 0.989447 0.0731293 0.727342
244 1 0.20664 0.359288 0.74514
245 2 0.203044 0.390052 0.740553
246 2 0.207823 0.35365 0.777756
247 1 0.31872 0.669497 0.153737
248 2 0.311331 0.664482 0.131846
249 2 0.325644 0.645715 0.150135
250 1 0.85989 0.59711 0.223201
251 2 0.851037 0.585147 0.213349
252 2 0.858791 0.628583 0.23355
253 1 0.250751 0.482069 0.596909
254 2 0.25593 0.482385 0.625421
255 2 0.242196 0.465396 0.601373
256 1 0.451216 0.595504 0.744606
257 2 0.450644 0.617334 0.769724
258 2 0.449883 0.611445 0.715671
259 1 0.245544 0.5175 0.488768
260 2 0.255268 0.510557 0.492296
261 2 0.243902 0.52979 0.458271
262 1 0.254662 0.211716 0.927018
263 2 0.253542 0.19062 0.952554
264 2 0.246469 0.210993 0.907923
265 1 0.803861 0.310606 0.394362
266 2 0.796582 0.332806 0.388923
267 2 0.801825 0.293283 0.42202
268 1 0.620044 0.341669 0.353977
269 2 0.615692 0.321563 0.331695
270 2 0.625602 0.323519 0.374916
271 1 0.883498 0.797818 0.804847
272 2 0.891673 0.78225 0.816081
273 2 0.876541 0.775247 0.796853
274 1 0.852111 0.673526 0.260137
275 2 0.848299 0.676988 0.290757
276 2 0.851374 0.702449 0.24375
277 1 0.885489 0.523102 0.195969
278 2 0.876177 0.513614 0.203569
279 2 0.8879 0.550105 0.213782
280 1 0.340043 0.74417 0.237571
281 2 0.349637 0.747412 0.246395
282 2 0.337362 0.712133 0.239764
283 1 0.314274 0.470594 0.598337
284 2 0.31779 0.442862 0.612645
285 2 0.308721 0.487471 0.620328
286 1 0.979534 0.0877434 0.924034
287 2 0.982576 0.0567742 0.91702
288 2 0.980387 0.106794 0.896829
289 1 0.367227 0.399765 0.322986
290 2 0.373754 0.424802 0.319674
291 2 0.362697 0.402016 0.352616
292 1 0.105859 0.407185 0.706753
293 2 0.0991569 0.417203 0.684132
294 2 0.104128 0.422694 0.735689
295 1 0.225726 0.449199 0.617909
296 2 0.221577 0.44909 0.587581
297 2 0.224212 0.478831 0.632316
298 1 0.374352 0.373445 0.244291
299 2 0.370533 0.373796 0.275096
300 2 0.384099 0.366154 0.245779
ITEM: TIMESTEP
10000
ITEM: NUMBER OF ATOMS
300
ITEM: BOX BOUNDS pp ff pp
0.0000000000000000e+00 1.0000000000000000e+02
0.0000000000000000e+00 3.0000000000000000e+01
0.0000000000000000e+00 3.0000000000000000e+01
ITEM: ATOMS id type xs ys zs
1 1 0.307793 0.717227 0.325527
2 2 0.310611 0.741712 0.30495
3 2 0.297809 0.715512 0.326295
4 1 0.63469 0.2816 0.41639
5 2 0.640815 0.26834 0.439158
6 2 0.62614 0.264327 0.41562
7 1 0.00174269 0.212948 0.938557
8 2 0.00932021 0.218674 0.959541
9 2 0.993983 0.200435 0.955455
10 1 0.537533 0.330958 0.380625
11 2 0.540157 0.359174 0.365183
12 2 0.535526 0.337424 0.412634
13 1 0.844929 0.718352 0.178286
14 2 0.83657 0.736399 0.181271
15 2 0.849597 0.726538 0.149966
16 1 0.275123 0.381179 0.683073
17 2 0.27865 0.357431 0.662851
18 2 0.266142 0.372133 0.694609
19 1 0.256883 0.319345 0.610931
20 2 0.248717 0.300202 0.612866
21 2 0.256253 0.34394 0.633332
22 1 0.158923 0.345171 0.63626
23 2 0.155119 0.318782 0.620326
24 2 0.151514 0.365744 0.645086
25 1 0.290749 0.752191 0.259676
26 2 0.288389 0.783547 0.25155
27 2 0.295026 0.737187 0.233547
28 1 0.588012 0.332268 0.289073
29 2 0.589279 0.358808 0.269352
30 2 0.580708 0.338467 0.31098
31 1 0.569632 0.364084 0.342765
32 2 0.560749 0.378651 0.338055
33 2 0.572462 0.368092 0.374484
34 1 0.191365 0.385908 0.865216
35 2 0.185426 0.378581 0.83942
36 2 0.189744 0.364165 0.889897
37 1 0.229396 0.374691 0.538637
38 2 0.232293 0.354545 0.513899
39 2 0.237143 0.380617 0.558863
40 1 0.333186 0.479191 0.542216
41 2 0.328656 0.479221 0.571934
42 2 0.342025 0.463811 0.54474
43 1 0.178717 0.493156 0.679974
44 2 0.181951 0.509319 0.652888
45 2 0.184969 0.468105 0.686992
46 1 0.530267 0.375892 0.251938
47 2 0.537852 0.357992 0.239637
48 2 0.521603 0.361315 0.243896
49 1 0.549683 0.320359 0.222008
50 2 0.555162 0.295816 0.20877
51 2 0.548878 0.315708 0.254906
52 1 0.897296 0.713875 0.839472
53 2 0.902341 0.709329 0.811053
54 2 0.903742 0.719664 0.864291
55 1 0.764021 0.585746 0.667873
56 2 0.762826 0.561675 0.690585
57 2 0.755702 0.604171 0.666228
58 1 0.271029 0.471502 0.68153
59 2 0.275612 0.442374 0.68694
60 2 0.263126 0.47416 0.70178
61 1 0.224876 0.372986 0.653461
62 2 0.21966 0.374175 0.681876
63 2 0.225363 0.4035 0.640144
64 1 0.296282 0.401659 0.577628
65 2 0.299891 0.409709 0.547602
66 2 0.29974 0.423158 0.600345
67 1 0.348591 0.528815 0.181944
68 2 0.346633 0.526242 0.21453
69 2 0.347586 0.498939 0.167547
70 1 0.857266 0.72096 0.0959599
71 2 0.850921 0.714186 0.0711022
72 2 0.86598 0.731337 0.0833181
73 1 0.990147 0.107062 0.828362
74 2 0.992976 0.100124 0.797152
75 2 0.995951 0.13124 0.840699
76 1 0.920855 0.928267 0.749813
77 2 0.920239 0.961136 0.744663
78 2 0.911683 0.915808 0.754405
79 1 0.224469 0.466852 0.522905
80 2 0.226073 0.435226 0.531978
81 2 0.229413 0.47324 0.494642
82 1 0.605269 0.331357 0.422503
83 2 0.613506 0.345851 0.410376
84 2 0.606398 0.298241 0.421988
85 1 0.294866 0.512973 0.632148
86 2 0.292197 0.536184 0.60994
87 2 0.286816 0.503165 0.649323
88 1 0.456043 0.655837 0.825259
89 2 0.452244 0.680808 0.843349
90 2 0.465164 0.648208 0.836598
91 1 0.347784 0.431134 0.205272
92 2 0.355401 0.413257 0.217389
93 2 0.339816 0.427569 0.225098
94 1 0.466814 0.546245 0.918318
95 2 0.461106 0.545442 0.890959
96 2 0.465663 0.517852 0.935355
97 1 0.580337 0.359225 0.423864
98 2 0.589084 0.343175 0.422009
99 2 0.578269 0.366088 0.455746
100 1 0.178843 0.407145 0.765168
101 2 0.177312 0.390348 0.736832
102 2 0.170237 0.420725 0.775355
103 1 0.304687 0.320324 0.673818
104 2 0.30141 0.297953 0.695983
105 2 0.298432 0.321311 0.64783
106 1 0.255337 0.435129 0.502598
107 2 0.254973 0.448521 0.533098
108 2 0.263618 0.416673 0.499657
109 1 0.192517 0.565081 0.624178
110 2 0.200126 0.570842 0.60333
111 2 0.191078 0.591819 0.643496
112 1 0.355536 0.496529 0.923512
113 2 0.362664 0.477842 0.909466
114 2 0.359706 0.523144 0.937986
115 1 0.449953 0.557988 0.847628
116 2 0.447992 0.590238 0.852949
117 2 0.449552 0.551627 0.814935
118 1 0.374649 0.442234 0.882457
119 2 0.382509 0.450144 0.86343
120 2 0.369847 0.416239 0.869072
121 1 0.980345 0.150861 0.987197
122 2 0.976523 0.143025 0.957407
123 2 0.980832 0.12348 0.00613766
124 1 0.152142 0.419875 0.76696
125 2 0.14414 0.399947 0.76858
126 2 0.149674 0.448208 0.751446
127 1 0.927679 0.868133 0.685138
128 2 0.937557 0.863101 0.686363
129 2 0.925175 0.892316 0.706507
130 1 0.60765 0.235179 0.408206
131 2 0.608811 0.24188 0.375783
132 2 0.602101 0.207676 0.411737
133 1 0.222987 0.483725 0.741196
134 2 0.220817 0.509916 0.721886
135 2 0.215173 0.476876 0.76084
136 1 0.248334 0.371001 0.695559
137 2 0.24167 0.365814 0.671255
138 2 0.246887 0.401227 0.708758
139 1 0.336659 0.597168 0.139866
140 2 0.340459 0.576825 0.163037
141 2 0.343764 0.618134 0.129346
142 1 0.341478 0.382016 0.902451
143 2 0.341294 0.415228 0.899681
144 2 0.332194 0.370717 0.907533
145 1 0.243482 0.54431 0.54554
146 2 0.252002 0.531001 0.556832
147 2 0.243029 0.540817 0.512425
148 1 0.325243 0.377049 0.646082
149 2 0.318505 0.353065 0.651695
150 2 0.334286 0.366499 0.655629
151 1 0.872973 0.652432 0.129206
152 2 0.865412 0.670321 0.116718
153 2 0.869324 0.627366 0.147504
154 1 0.309643 0.727791 0.198919
155 2 0.31732 0.748962 0.201759
156 2 0.313126 0.696789 0.195022
157 1 0.905706 0.811392 0.701699
158 2 0.914893 0.824554 0.701366
159 2 0.899031 0.834807 0.69346
160 1 0.804468 0.245425 0.481737
161 2 0.803375 0.212589 0.486168
162 2 0.812676 0.25122 0.4636
163 1 0.608671 0.272655 0.323241
164 2 0.614354 0.265945 0.296649
165 2 0.60091 0.291526 0.313976
166 1 0.284249 0.320821 0.609735
167 2 0.274579 0.317478 0.601932
168 2 0.288036 0.347208 0.593749
169 1 0.00912557 0.171358 0.861239
170 2 0.0119392 0.195472 0.840223
171 2 0.00673031 0.184773 0.890691
172 1 0.125207 0.418983 0.70935
173 2 0.130148 0.447866 0.706995
174 2 0.115486 0.424159 0.703475
175 1 0.551313 0.29397 0.312862
176 2 0.545927 0.29757 0.340716
177 2 0.56003 0.309954 0.316229
178 1 0.333012 0.692064 0.271393
179 2 0.328891 0.670815 0.249691
180 2 0.330591 0.683001 0.302439
181 1 0.180399 0.389698 0.670683
182 2 0.172477 0.375695 0.655928
183 2 0.188609 0.383484 0.652699
184 1 0.429312 0.115376 0.937633
185 2 0.421367 0.0998224 0.950586
186 2 0.437319 0.0955222 0.939772
187 1 0.880131 0.73536 0.0521148
188 2 0.885944 0.708773 0.0574738
189 2 0.885178 0.757959 0.034299
190 1 0.343913 0.508806 0.449057
191 2 0.351033 0.532212 0.449357
192 2 0.338972 0.509314 0.478032
193 1 0.895482 0.65412 0.0703415
194 2 0.890331 0.647423 0.0981169
195 2 0.903588 0.634647 0.0690165
196 1 0.215324 0.546289 0.672683
197 2 0.205452 0.550505 0.669454
198 2 0.219594 0.546461 0.642541
199 1 0.217119 0.54983 0.577653
200 2 0.212545 0.527761 0.557865
201 2 0.226395 0.555289 0.566455
202 1 0.20107 0.464982 0.795304
203 2 0.203773 0.45883 0.826801
204 2 0.191923 0.452659 0.789861
205 1 0.543658 0.410823 0.3327
206 2 0.542327 0.443202 0.339259
207 2 0.538909 0.402941 0.304444
208 1 0.826817 0.276154 0.424133
209 2 0.820302 0.301272 0.421206
210 2 0.836116 0.28774 0.420114
211 1 0.447328 0.548823 0.756313
212 2 0.44702 0.580139 0.744939
213 2 0.455975 0.534686 0.747346
214 1 0.338996 0.392441 0.304428
215 2 0.341817 0.410277 0.330972
216 2 0.347026 0.384938 0.286036
217 1 0.249302 0.448888 0.747143
218 2 0.241281 0.468384 0.743113
219 2 0.251111 0.44489 0.779681
220 1 0.910444 0.72925 0.756441
221 2 0.918191 0.749321 0.750007
222 2 0.906187 0.719866 0.727775
223 1 0.19769 0.391046 0.605412
224 2 0.20712 0.382572 0.598245
225 2 0.192951 0.39984 0.577408
226 1 0.359238 0.376709 0.824139
227 2 0.353551 0.376266 0.796725
228 2 0.353587 0.369898 0.850784
229 1 0.895903 0.90048 0.760853
230 2 0.894522 0.879905 0.786671
231 2 0.89021 0.927605 0.76474
232 1 0.476817 0.622913 0.872312
233 2 0.474029 0.595168 0.888279
234 2 0.486772 0.625837 0.873514
235 1 0.358214 0.43292 0.415671
236 2 0.350593 0.451039 0.427398
237 2 0.356414 0.400578 0.421065
238 1 0.147001 0.488913 0.702679
239 2 0.14805 0.521273 0.695486
240 2 0.155476 0.472795 0.695387
241 1 0.994099 0.0810117 0.743831
242 2 0.991394 0.0511599 0.755605
243 2 0.98664 0.093765 0.725661
244 1 0.205377 0.388104 0.727445
245 2 0.201464 0.385586 0.758017
246 2 0.198595 0.401228 0.706765
247 1 0.317965 0.642157 0.189065
248 2 0.309711 0.623746 0.192957
249 2 0.323339 0.630132 0.163656
250 1 0.859673 0.597391 0.191913
251 2 0.852229 0.5788 0.204158
252 2 0.862773 0.618869 0.215216
253 1 0.257766 0.461249 0.585729
254 2 0.265856 0.460399 0.605301
255 2 0.249532 0.461655 0.604642
256 1 0.448986 0.635254 0.736815
257 2 0.453572 0.646894 0.764054
258 2 0.445076 0.660692 0.719664
259 1 0.247516 0.507734 0.460426
260 2 0.250717 0.478499 0.472368
261 2 0.254771 0.521838 0.442334
262 1 0.250287 0.187827 0.914472
263 2 0.246136 0.170509 0.939366
264 2 0.244017 0.211893 0.90472
265 1 0.806554 0.333957 0.433179
266 2 0.800137 0.359506 0.434062
267 2 0.803066 0.309074 0.452066
268 1 0.625373 0.350129 0.361067
269 2 0.617992 0.332736 0.346806
270 2 0.630931 0.329787 0.379882
271 1 0.890596 0.816329 0.783661
272 2 0.894077 0.816244 0.752413
273 2 0.89375 0.788943 0.799492
274 1 0.861148 0.676065 0.240148
275 2 0.866129 0.704332 0.246175
276 2 0.853728 0.682081 0.218625
277 1 0.878509 0.541759 0.165817
278 2 0.872561 0.564669 0.179716
279 2 0.875663 0.536507 0.134296
280 1 0.334721 0.773443 0.239143
281 2 0.341301 0.796708 0.248563
282 2 0.336916 0.744568 0.254103
283 1 0.319806 0.461549 0.62529
284 2 0.322215 0.430578 0.634638
285 2 0.311933 0.472038 0.642963
286 1 0.979474 0.0867141 0.911165
287 2 0.988001 0.0695278 0.908363
288 2 0.976841 0.0986172 0.881292
289 1 0.362724 0.437802 0.328107
290 2 0.364609 0.469854 0.321453
291 2 0.363973 0.432197 0.3607
292 1 0.0989993 0.431492 0.711414
293 2 0.0922546 0.407381 0.716343
294 2 0.0943949 0.458867 0.700182
295 1 0.234691 0.468944 0.628132
296 2 0.231185 0.482937 0.600227
297 2 0.230033 0.482126 0.654518
298 1 0.366053 0.387424 0.249115
299 2 0.36754 0.398022 0.280328
300 2 0.37437 0.372751 0.237831
