LAMMPS water channel data file

300 atoms
200 bonds
100 angles

2 atom types
1 bond types
1 angle types

0.0 100.0000 xlo xhi
0.0 30.0000 ylo yhi
0.0 30.0000 zlo zhi

Masses

1  15.9994  # Oxygen
2   1.0080  # Hydrogen

Atoms  # full

1 1 1 -0.8476  37.955851  26.718572  21.031842
2 1 2 0.4238  37.139361  26.141213  21.031842
3 1 2 0.4238  38.772342  26.141213  21.031842
4 2 1 -0.8476  59.471214  6.056485  6.055858
5 2 2 0.4238  58.654724  5.479126  6.055858
6 2 2 0.4238  60.287705  5.479126  6.055858
7 3 1 -0.8476  7.576027  24.520580  17.628990
8 3 2 0.4238  6.759536  23.943221  17.628990
9 3 2 0.4238  8.392517  23.943221  17.628990
10 4 1 -0.8476  69.974967  2.535197  27.217656
11 4 2 0.4238  69.158477  1.957838  27.217656
12 4 2 0.4238  70.791458  1.957838  27.217656
13 5 1 -0.8476  81.914494  7.520817  6.727449
14 5 2 0.4238  81.098003  6.943458  6.727449
15 5 2 0.4238  82.730984  6.943458  6.727449
16 6 1 -0.8476  19.606833  9.910298  15.643667
17 6 2 0.4238  18.790343  9.332939  15.643667
18 6 2 0.4238  20.423323  9.332939  15.643667
19 7 1 -0.8476  43.466722  9.571958  17.908175
20 7 2 0.4238  42.650231  8.994599  17.908175
21 7 2 0.4238  44.283212  8.994599  17.908175
22 8 1 -0.8476  15.391411  9.595761  11.525408
23 8 2 0.4238  14.574920  9.018402  11.525408
24 8 2 0.4238  16.207901  9.018402  11.525408
25 9 1 -0.8476  45.782718  22.414575  7.191518
26 9 2 0.4238  44.966228  21.837216  7.191518
27 9 2 0.4238  46.599209  21.837216  7.191518
28 10 1 -0.8476  51.366506  17.402779  3.207711
29 10 2 0.4238  50.550016  16.825420  3.207711
30 10 2 0.4238  52.182997  16.825420  3.207711
31 11 1 -0.8476  60.324306  6.433627  3.691341
32 11 2 0.4238  59.507815  5.856268  3.691341
33 11 2 0.4238  61.140796  5.856268  3.691341
34 12 1 -0.8476  93.093012  27.106433  23.018331
35 12 2 0.4238  92.276521  26.529074  23.018331
36 12 2 0.4238  93.909502  26.529074  23.018331
37 13 1 -0.8476  31.242922  4.539475  19.790059
38 13 2 0.4238  30.426431  3.962116  19.790059
39 13 2 0.4238  32.059412  3.962116  19.790059
40 14 1 -0.8476  44.254639  5.172994  14.874600
41 14 2 0.4238  43.438149  4.595635  14.874600
42 14 2 0.4238  45.071130  4.595635  14.874600
43 15 1 -0.8476  5.301298  25.642330  8.728280
44 15 2 0.4238  4.484808  25.064971  8.728280
45 15 2 0.4238  6.117788  25.064971  8.728280
46 16 1 -0.8476  65.602139  10.104488  15.521769
47 16 2 0.4238  64.785649  9.527129  15.521769
48 16 2 0.4238  66.418630  9.527129  15.521769
49 17 1 -0.8476  54.484187  6.806216  27.209200
50 17 2 0.4238  53.667696  6.228857  27.209200
51 17 2 0.4238  55.300677  6.228857  27.209200
52 18 1 -0.8476  76.412751  26.426972  25.265511
53 18 2 0.4238  75.596261  25.849614  25.265511
54 18 2 0.4238  77.229241  25.849614  25.265511
55 19 1 -0.8476  59.398398  25.968730  4.300805
56 19 2 0.4238  58.581908  25.391371  4.300805
57 19 2 0.4238  60.214888  25.391371  4.300805
58 20 1 -0.8476  20.814355  3.175910  10.458589
59 20 2 0.4238  19.997864  2.598551  10.458589
60 20 2 0.4238  21.630845  2.598551  10.458589
61 21 1 -0.8476  39.313020  9.055075  23.547175
62 21 2 0.4238  38.496529  8.477716  23.547175
63 21 2 0.4238  40.129510  8.477716  23.547175
64 22 1 -0.8476  36.248319  9.304297  16.110098
65 22 2 0.4238  35.431829  8.726938  16.110098
66 22 2 0.4238  37.064810  8.726938  16.110098
67 23 1 -0.8476  15.528726  22.857121  3.938317
68 23 2 0.4238  14.712235  22.279763  3.938317
69 23 2 0.4238  16.345216  22.279763  3.938317
70 24 1 -0.8476  96.741146  22.078364  7.166608
71 24 2 0.4238  95.924655  21.501005  7.166608
72 24 2 0.4238  97.557636  21.501005  7.166608
73 25 1 -0.8476  2.530123  23.201997  20.378291
74 25 2 0.4238  1.713633  22.624638  20.378291
75 25 2 0.4238  3.346614  22.624638  20.378291
76 26 1 -0.8476  71.984688  22.053029  3.925161
77 26 2 0.4238  71.168198  21.475670  3.925161
78 26 2 0.4238  72.801179  21.475670  3.925161
79 27 1 -0.8476  36.412710  5.012596  24.440689
80 27 2 0.4238  35.596220  4.435237  24.440689
81 27 2 0.4238  37.229200  4.435237  24.440689
82 28 1 -0.8476  61.836620  10.603349  3.652517
83 28 2 0.4238  61.020130  10.025990  3.652517
84 28 2 0.4238  62.653111  10.025990  3.652517
85 29 1 -0.8476  31.854303  10.454766  20.969761
86 29 2 0.4238  31.037812  9.877407  20.969761
87 29 2 0.4238  32.670793  9.877407  20.969761
88 30 1 -0.8476  63.205517  25.067531  14.277588
89 30 2 0.4238  62.389027  24.490172  14.277588
90 30 2 0.4238  64.022008  24.490172  14.277588
91 31 1 -0.8476  13.481048  20.544364  21.780411
92 31 2 0.4238  12.664557  19.967006  21.780411
93 31 2 0.4238  14.297538  19.967006  21.780411
94 32 1 -0.8476  55.882611  22.045147  14.838686
95 32 2 0.4238  55.066121  21.467788  14.838686
96 32 2 0.4238  56.699101  21.467788  14.838686
97 33 1 -0.8476  52.182352  13.116066  2.660897
98 33 2 0.4238  51.365861  12.538708  2.660897
99 33 2 0.4238  52.998842  12.538708  2.660897
100 34 1 -0.8476  12.357577  2.817159  18.546671
101 34 2 0.4238  11.541087  2.239800  18.546671
102 34 2 0.4238  13.174067  2.239800  18.546671
103 35 1 -0.8476  32.178174  15.222838  25.596728
104 35 2 0.4238  31.361684  14.645479  25.596728
105 35 2 0.4238  32.994665  14.645479  25.596728
106 36 1 -0.8476  25.932054  12.669956  21.644330
107 36 2 0.4238  25.115564  12.092597  21.644330
108 36 2 0.4238  26.748544  12.092597  21.644330
109 37 1 -0.8476  23.964624  4.001478  9.533538
110 37 2 0.4238  23.148133  3.424119  9.533538
111 37 2 0.4238  24.781114  3.424119  9.533538
112 38 1 -0.8476  17.477244  26.172139  23.011130
113 38 2 0.4238  16.660753  25.594780  23.011130
114 38 2 0.4238  18.293734  25.594780  23.011130
115 39 1 -0.8476  62.806761  24.657975  22.895474
116 39 2 0.4238  61.990270  24.080616  22.895474
117 39 2 0.4238  63.623251  24.080616  22.895474
118 40 1 -0.8476  19.910726  25.206534  16.022898
119 40 2 0.4238  19.094235  24.629175  16.022898
120 40 2 0.4238  20.727216  24.629175  16.022898
121 41 1 -0.8476  79.514255  25.298374  10.268090
122 41 2 0.4238  78.697764  24.721015  10.268090
123 41 2 0.4238  80.330745  24.721015  10.268090
124 42 1 -0.8476  12.564985  7.926314  13.104803
125 42 2 0.4238  11.748494  7.348955  13.104803
126 42 2 0.4238  13.381475  7.348955  13.104803
127 43 1 -0.8476  80.529418  24.378995  2.180755
128 43 2 0.4238  79.712927  23.801636  2.180755
129 43 2 0.4238  81.345908  23.801636  2.180755
130 44 1 -0.8476  51.031741  12.852686  7.774803
131 44 2 0.4238  50.215251  12.275327  7.774803
132 44 2 0.4238  51.848231  12.275327  7.774803
133 45 1 -0.8476  13.507075  10.777994  26.515652
134 45 2 0.4238  12.690585  10.200635  26.515652
135 45 2 0.4238  14.323566  10.200635  26.515652
136 46 1 -0.8476  33.027481  15.488556  20.278493
137 46 2 0.4238  32.210991  14.911197  20.278493
138 46 2 0.4238  33.843972  14.911197  20.278493
139 47 1 -0.8476  36.908442  27.266334  27.023630
140 47 2 0.4238  36.091951  26.688975  27.023630
141 47 2 0.4238  37.724932  26.688975  27.023630
142 48 1 -0.8476  26.171100  14.928461  9.822836
143 48 2 0.4238  25.354610  14.351102  9.822836
144 48 2 0.4238  26.987591  14.351102  9.822836
145 49 1 -0.8476  29.344687  2.959061  17.848673
146 49 2 0.4238  28.528197  2.381702  17.848673
147 49 2 0.4238  30.161178  2.381702  17.848673
148 50 1 -0.8476  50.257186  3.338448  9.244808
149 50 2 0.4238  49.440696  2.761089  9.244808
150 50 2 0.4238  51.073677  2.761089  9.244808
151 51 1 -0.8476  89.193525  8.228609  5.767267
152 51 2 0.4238  88.377035  7.651250  5.767267
153 51 2 0.4238  90.010015  7.651250  5.767267
154 52 1 -0.8476  48.987465  27.626912  8.293437
155 52 2 0.4238  48.170975  27.049553  8.293437
156 52 2 0.4238  49.803955  27.049553  8.293437
157 53 1 -0.8476  66.525013  21.802110  8.178576
158 53 2 0.4238  65.708522  21.224751  8.178576
159 53 2 0.4238  67.341503  21.224751  8.178576
160 54 1 -0.8476  71.908769  11.562361  18.439952
161 54 2 0.4238  71.092279  10.985002  18.439952
162 54 2 0.4238  72.725260  10.985002  18.439952
163 55 1 -0.8476  62.818852  15.930142  4.347534
164 55 2 0.4238  62.002362  15.352783  4.347534
165 55 2 0.4238  63.635343  15.352783  4.347534
166 56 1 -0.8476  82.189040  10.340282  6.849481
167 56 2 0.4238  81.372549  9.762923  6.849481
168 56 2 0.4238  83.005530  9.762923  6.849481
169 57 1 -0.8476  5.914414  17.363217  19.616673
170 57 2 0.4238  5.097923  16.785858  19.616673
171 57 2 0.4238  6.730904  16.785858  19.616673
172 58 1 -0.8476  3.592432  15.314420  7.888890
173 58 2 0.4238  2.775941  14.737061  7.888890
174 58 2 0.4238  4.408922  14.737061  7.888890
175 59 1 -0.8476  63.936588  6.533527  19.964381
176 59 2 0.4238  63.120097  5.956168  19.964381
177 59 2 0.4238  64.753078  5.956168  19.964381
178 60 1 -0.8476  39.126593  26.354980  5.575545
179 60 2 0.4238  38.310103  25.777621  5.575545
180 60 2 0.4238  39.943084  25.777621  5.575545
181 61 1 -0.8476  34.742370  4.950312  26.042034
182 61 2 0.4238  33.925879  4.372953  26.042034
183 61 2 0.4238  35.558860  4.372953  26.042034
184 62 1 -0.8476  86.224578  8.706482  19.159585
185 62 2 0.4238  85.408087  8.129123  19.159585
186 62 2 0.4238  87.041068  8.129123  19.159585
187 63 1 -0.8476  80.453331  16.435221  15.770915
188 63 2 0.4238  79.636841  15.857862  15.770915
189 63 2 0.4238  81.269822  15.857862  15.770915
190 64 1 -0.8476  25.217820  4.420672  25.327610
191 64 2 0.4238  24.401329  3.843313  25.327610
192 64 2 0.4238  26.034310  3.843313  25.327610
193 65 1 -0.8476  88.440133  18.460638  10.814775
194 65 2 0.4238  87.623643  17.883279  10.814775
195 65 2 0.4238  89.256624  17.883279  10.814775
196 66 1 -0.8476  35.524119  20.874848  25.324867
197 66 2 0.4238  34.707629  20.297489  25.324867
198 66 2 0.4238  36.340610  20.297489  25.324867
199 67 1 -0.8476  87.160297  22.276764  18.692823
200 67 2 0.4238  86.343806  21.699405  18.692823
201 67 2 0.4238  87.976787  21.699405  18.692823
202 68 1 -0.8476  10.077437  6.202347  25.362409
203 68 2 0.4238  9.260946  5.624988  25.362409
204 68 2 0.4238  10.893927  5.624988  25.362409
205 69 1 -0.8476  60.217190  2.239123  4.638260
206 69 2 0.4238  59.400699  1.661764  4.638260
207 69 2 0.4238  61.033680  1.661764  4.638260
208 70 1 -0.8476  65.696170  2.131601  6.181009
209 70 2 0.4238  64.879679  1.554242  6.181009
210 70 2 0.4238  66.512660  1.554242  6.181009
211 71 1 -0.8476  54.678444  19.989275  18.950993
212 71 2 0.4238  53.861953  19.411916  18.950993
213 71 2 0.4238  55.494934  19.411916  18.950993
214 72 1 -0.8476  23.529854  20.516660  8.168476
215 72 2 0.4238  22.713363  19.939301  8.168476
216 72 2 0.4238  24.346344  19.939301  8.168476
217 73 1 -0.8476  33.238371  21.408777  18.890455
218 73 2 0.4238  32.421881  20.831418  18.890455
219 73 2 0.4238  34.054861  20.831418  18.890455
220 74 1 -0.8476  83.525447  19.097935  16.776024
221 74 2 0.4238  82.708957  18.520576  16.776024
222 74 2 0.4238  84.341938  18.520576  16.776024
223 75 1 -0.8476  10.992778  11.560611  8.895262
224 75 2 0.4238  10.176287  10.983252  8.895262
225 75 2 0.4238  11.809268  10.983252  8.895262
226 76 1 -0.8476  25.423006  27.298274  12.220541
227 76 2 0.4238  24.606515  26.720915  12.220541
228 76 2 0.4238  26.239496  26.720915  12.220541
229 77 1 -0.8476  87.636469  18.409604  22.665094
230 77 2 0.4238  86.819979  17.832245  22.665094
231 77 2 0.4238  88.452960  17.832245  22.665094
232 78 1 -0.8476  50.253161  16.999501  14.805460
233 78 2 0.4238  49.436671  16.422142  14.805460
234 78 2 0.4238  51.069651  16.422142  14.805460
235 79 1 -0.8476  20.743327  20.783755  9.300081
236 79 2 0.4238  19.926836  20.206396  9.300081
237 79 2 0.4238  21.559817  20.206396  9.300081
238 80 1 -0.8476  4.334333  18.782280  6.604878
239 80 2 0.4238  3.517842  18.204921  6.604878
240 80 2 0.4238  5.150823  18.204921  6.604878
241 81 1 -0.8476  92.284024  26.802143  25.786474
242 81 2 0.4238  91.467534  26.224784  25.786474
243 81 2 0.4238  93.100515  26.224784  25.786474
244 82 1 -0.8476  37.535235  2.401872  26.136283
245 82 2 0.4238  36.718745  1.824513  26.136283
246 82 2 0.4238  38.351726  1.824513  26.136283
247 83 1 -0.8476  43.105678  27.133025  27.054119
248 83 2 0.4238  42.289188  26.555666  27.054119
249 83 2 0.4238  43.922169  26.555666  27.054119
250 84 1 -0.8476  83.888908  9.655671  12.012541
251 84 2 0.4238  83.072417  9.078312  12.012541
252 84 2 0.4238  84.705398  9.078312  12.012541
253 85 1 -0.8476  83.709120  10.239972  6.406811
254 85 2 0.4238  82.892630  9.662613  6.406811
255 85 2 0.4238  84.525611  9.662613  6.406811
256 86 1 -0.8476  55.452921  26.340024  20.096775
257 86 2 0.4238  54.636431  25.762665  20.096775
258 86 2 0.4238  56.269412  25.762665  20.096775
259 87 1 -0.8476  56.725872  4.526589  17.990188
260 87 2 0.4238  55.909382  3.949230  17.990188
261 87 2 0.4238  57.542363  3.949230  17.990188
262 88 1 -0.8476  97.045170  5.642184  15.476571
263 88 2 0.4238  96.228679  5.064825  15.476571
264 88 2 0.4238  97.861660  5.064825  15.476571
265 89 1 -0.8476  86.227815  21.259984  20.122409
266 89 2 0.4238  85.411324  20.682625  20.122409
267 89 2 0.4238  87.044305  20.682625  20.122409
268 90 1 -0.8476  69.438472  11.346770  9.633388
269 90 2 0.4238  68.621982  10.769411  9.633388
270 90 2 0.4238  70.254962  10.769411  9.633388
271 91 1 -0.8476  79.698671  23.062948  24.543880
272 91 2 0.4238  78.882180  22.485589  24.543880
273 91 2 0.4238  80.515161  22.485589  24.543880
274 92 1 -0.8476  89.671093  15.294902  15.039424
275 92 2 0.4238  88.854603  14.717543  15.039424
276 92 2 0.4238  90.487583  14.717543  15.039424
277 93 1 -0.8476  78.636337  18.899062  20.251139
278 93 2 0.4238  77.819847  18.321703  20.251139
279 93 2 0.4238  79.452828  18.321703  20.251139
280 94 1 -0.8476  78.396096  25.140139  10.787874
281 94 2 0.4238  77.579606  24.562780  10.787874
282 94 2 0.4238  79.212587  24.562780  10.787874
283 95 1 -0.8476  38.055963  4.443530  17.035284
284 95 2 0.4238  37.239473  3.866171  17.035284
285 95 2 0.4238  38.872454  3.866171  17.035284
286 96 1 -0.8476  5.450458  14.105548  16.108761
287 96 2 0.4238  4.633968  13.528190  16.108761
288 96 2 0.4238  6.266949  13.528190  16.108761
289 97 1 -0.8476  29.507960  17.361665  2.793006
290 97 2 0.4238  28.691470  16.784306  2.793006
291 97 2 0.4238  30.324451  16.784306  2.793006
292 98 1 -0.8476  5.585426  23.387615  11.364957
293 98 2 0.4238  4.768936  22.810256  11.364957
294 98 2 0.4238  6.401917  22.810256  11.364957
295 99 1 -0.8476  14.197809  15.578325  22.019832
296 99 2 0.4238  13.381319  15.000966  22.019832
297 99 2 0.4238  15.014300  15.000966  22.019832
298 100 1 -0.8476  22.718819  18.195152  4.219034
299 100 2 0.4238  21.902328  17.617793  4.219034
300 100 2 0.4238  23.535309  17.617793  4.219034

Bonds

1 1 1 2
2 1 1 3
3 1 4 5
4 1 4 6
5 1 7 8
6 1 7 9
7 1 10 11
8 1 10 12
9 1 13 14
10 1 13 15
11 1 16 17
12 1 16 18
13 1 19 20
14 1 19 21
15 1 22 23
16 1 22 24
17 1 25 26
18 1 25 27
19 1 28 29
20 1 28 30
21 1 31 32
22 1 31 33
23 1 34 35
24 1 34 36
25 1 37 38
26 1 37 39
27 1 40 41
28 1 40 42
29 1 43 44
30 1 43 45
31 1 46 47
32 1 46 48
33 1 49 50
34 1 49 51
35 1 52 53
36 1 52 54
37 1 55 56
38 1 55 57
39 1 58 59
40 1 58 60
41 1 61 62
42 1 61 63
43 1 64 65
44 1 64 66
45 1 67 68
46 1 67 69
47 1 70 71
48 1 70 72
49 1 73 74
50 1 73 75
51 1 76 77
52 1 76 78
53 1 79 80
54 1 79 81
55 1 82 83
56 1 82 84
57 1 85 86
58 1 85 87
59 1 88 89
60 1 88 90
61 1 91 92
62 1 91 93
63 1 94 95
64 1 94 96
65 1 97 98
66 1 97 99
67 1 100 101
68 1 100 102
69 1 103 104
70 1 103 105
71 1 106 107
72 1 106 108
73 1 109 110
74 1 109 111
75 1 112 113
76 1 112 114
77 1 115 116
78 1 115 117
79 1 118 119
80 1 118 120
81 1 121 122
82 1 121 123
83 1 124 125
84 1 124 126
85 1 127 128
86 1 127 129
87 1 130 131
88 1 130 132
89 1 133 134
90 1 133 135
91 1 136 137
92 1 136 138
93 1 139 140
94 1 139 141
95 1 142 143
96 1 142 144
97 1 145 146
98 1 145 147
99 1 148 149
100 1 148 150
101 1 151 152
102 1 151 153
103 1 154 155
104 1 154 156
105 1 157 158
106 1 157 159
107 1 160 161
108 1 160 162
109 1 163 164
110 1 163 165
111 1 166 167
112 1 166 168
113 1 169 170
114 1 169 171
115 1 172 173
116 1 172 174
117 1 175 176
118 1 175 177
119 1 178 179
120 1 178 180
121 1 181 182
122 1 181 183
123 1 184 185
124 1 184 186
125 1 187 188
126 1 187 189
127 1 190 191
128 1 190 192
129 1 193 194
130 1 193 195
131 1 196 197
132 1 196 198
133 1 199 200
134 1 199 201
135 1 202 203
136 1 202 204
137 1 205 206
138 1 205 207
139 1 208 209
140 1 208 210
141 1 211 212
142 1 211 213
143 1 214 215
144 1 214 216
145 1 217 218
146 1 217 219
147 1 220 221
148 1 220 222
149 1 223 224
150 1 223 225
151 1 226 227
152 1 226 228
153 1 229 230
154 1 229 231
155 1 232 233
156 1 232 234
157 1 235 236
158 1 235 237
159 1 238 239
160 1 238 240
161 1 241 242
162 1 241 243
163 1 244 245
164 1 244 246
165 1 247 248
166 1 247 249
167 1 250 251
168 1 250 252
169 1 253 254
170 1 253 255
171 1 256 257
172 1 256 258
173 1 259 260
174 1 259 261
175 1 262 263
176 1 262 264
177 1 265 266
178 1 265 267
179 1 268 269
180 1 268 270
181 1 271 272
182 1 271 273
183 1 274 275
184 1 274 276
185 1 277 278
186 1 277 279
187 1 280 281
188 1 280 282
189 1 283 284
190 1 283 285
191 1 286 287
192 1 286 288
193 1 289 290
194 1 289 291
195 1 292 293
196 1 292 294
197 1 295 296
198 1 295 297
199 1 298 299
200 1 298 300

Angles

1 1 2 1 3
2 1 5 4 6
3 1 8 7 9
4 1 11 10 12
5 1 14 13 15
6 1 17 16 18
7 1 20 19 21
8 1 23 22 24
9 1 26 25 27
10 1 29 28 30
11 1 32 31 33
12 1 35 34 36
13 1 38 37 39
14 1 41 40 42
15 1 44 43 45
16 1 47 46 48
17 1 50 49 51
18 1 53 52 54
19 1 56 55 57
20 1 59 58 60
21 1 62 61 63
22 1 65 64 66
23 1 68 67 69
24 1 71 70 72
25 1 74 73 75
26 1 77 76 78
27 1 80 79 81
28 1 83 82 84
29 1 86 85 87
30 1 89 88 90
31 1 92 91 93
32 1 95 94 96
33 1 98 97 99
34 1 101 100 102
35 1 104 103 105
36 1 107 106 108
37 1 110 109 111
38 1 113 112 114
39 1 116 115 117
40 1 119 118 120
41 1 122 121 123
42 1 125 124 126
43 1 128 127 129
44 1 131 130 132
45 1 134 133 135
46 1 137 136 138
47 1 140 139 141
48 1 143 142 144
49 1 146 145 147
50 1 149 148 150
51 1 152 151 153
52 1 155 154 156
53 1 158 157 159
54 1 161 160 162
55 1 164 163 165
56 1 167 166 168
57 1 170 169 171
58 1 173 172 174
59 1 176 175 177
60 1 179 178 180
61 1 182 181 183
62 1 185 184 186
63 1 188 187 189
64 1 191 190 192
65 1 194 193 195
66 1 197 196 198
67 1 200 199 201
68 1 203 202 204
69 1 206 205 207
70 1 209 208 210
71 1 212 211 213
72 1 215 214 216
73 1 218 217 219
74 1 221 220 222
75 1 224 223 225
76 1 227 226 228
77 1 230 229 231
78 1 233 232 234
79 1 236 235 237
80 1 239 238 240
81 1 242 241 243
82 1 245 244 246
83 1 248 247 249
84 1 251 250 252
85 1 254 253 255
86 1 257 256 258
87 1 260 259 261
88 1 263 262 264
89 1 266 265 267
90 1 269 268 270
91 1 272 271 273
92 1 275 274 276
93 1 278 277 279
94 1 281 280 282
95 1 284 283 285
96 1 287 286 288
97 1 290 289 291
98 1 293 292 294
99 1 296 295 297
100 1 299 298 300
