LAMMPS data file. CGCMM style. atom_style full generated by VMD/TopoTools v1.8 on Wed Mar 18 18:04:16 +0100 2026
 300 atoms
 200 bonds
 100 angles
 0 dihedrals
 0 impropers
 2 atom types
 1 bond types
 1 angle types
 0 dihedral types
 0 improper types
 -0.536000 20.554000  xlo xhi
 -0.506499 20.553500  ylo yhi
 -0.326501 20.673499  zlo zhi

# Pair Coeffs
#
# 1  H
# 2  O

# Bond Coeffs
#
# 1  

# Angle Coeffs
#
# 1  H-O-H

 Masses

 1 1.008000 # H
 2 15.999000 # O

 Atoms # full

1 1 1 0.000000 9.129000 0.037000 17.511000 # H HOH
2 1 1 0.000000 8.678000 1.444000 17.978001 # H HOH
3 1 2 0.000000 9.181000 0.986000 17.273001 # O HOH
4 2 1 0.000000 10.044000 11.577000 2.833000 # H HOH
5 2 1 0.000000 9.039000 10.694000 3.616000 # H HOH
6 2 2 0.000000 9.829000 11.261000 3.735000 # O HOH
7 3 1 0.000000 9.603000 14.801000 17.724001 # H HOH
8 3 1 0.000000 9.524000 13.873000 18.962000 # H HOH
9 3 2 0.000000 9.991000 13.988000 18.108000 # O HOH
10 4 1 0.000000 3.264000 1.483000 5.544000 # H HOH
11 4 1 0.000000 4.661000 0.814000 5.496000 # H HOH
12 4 2 0.000000 3.770000 0.720000 5.892000 # O HOH
13 5 1 0.000000 17.395000 2.863000 5.386000 # H HOH
14 5 1 0.000000 16.357000 3.330000 4.333000 # H HOH
15 5 2 0.000000 17.322001 3.261000 4.493000 # O HOH
16 6 1 0.000000 4.949000 0.532000 18.938999 # H HOH
17 6 1 0.000000 6.124000 0.985000 18.035999 # H HOH
18 6 2 0.000000 5.384000 0.344000 18.080999 # O HOH
19 7 1 0.000000 9.328000 6.847000 1.769000 # H HOH
20 7 1 0.000000 10.795000 7.196000 1.411000 # H HOH
21 7 2 0.000000 9.911000 7.600000 1.536000 # O HOH
22 8 1 0.000000 11.361000 7.766000 8.751000 # H HOH
23 8 1 0.000000 11.388000 9.272000 9.116000 # H HOH
24 8 2 0.000000 10.860000 8.600000 8.636000 # O HOH
25 9 1 0.000000 4.006000 4.990000 7.178000 # H HOH
26 9 1 0.000000 4.173000 4.179000 8.489000 # H HOH
27 9 2 0.000000 4.630000 4.832000 7.918000 # O HOH
28 10 1 0.000000 8.838000 16.705999 1.496000 # H HOH
29 10 1 0.000000 9.418000 16.260000 0.129000 # H HOH
30 10 2 0.000000 9.657000 16.372000 1.073000 # O HOH
31 11 1 0.000000 7.159000 6.419000 11.517000 # H HOH
32 11 1 0.000000 8.631000 6.624000 11.077000 # H HOH
33 11 2 0.000000 7.847000 7.109000 11.409000 # O HOH
34 12 1 0.000000 16.277000 7.023000 15.023000 # H HOH
35 12 1 0.000000 17.070000 8.228000 14.459000 # H HOH
36 12 2 0.000000 17.068001 7.249000 14.492000 # O HOH
37 13 1 0.000000 14.291000 12.717000 3.674000 # H HOH
38 13 1 0.000000 13.112000 12.506000 2.690000 # H HOH
39 13 2 0.000000 13.519000 13.175000 3.280000 # O HOH
40 14 1 0.000000 17.465000 8.263000 16.802999 # H HOH
41 14 1 0.000000 18.368999 7.058000 16.437000 # H HOH
42 14 2 0.000000 18.402000 8.011000 16.667000 # O HOH
43 15 1 0.000000 1.022000 20.010000 17.534000 # H HOH
44 15 1 0.000000 1.692000 20.010000 16.136000 # H HOH
45 15 2 0.000000 0.966000 19.594999 16.648001 # O HOH
46 16 1 0.000000 6.259000 9.734000 10.358000 # H HOH
47 16 1 0.000000 7.471000 9.898000 11.310000 # H HOH
48 16 2 0.000000 7.213000 9.957000 10.367000 # O HOH
49 17 1 0.000000 11.850000 10.737000 16.497000 # H HOH
50 17 1 0.000000 11.532000 11.116000 17.966000 # H HOH
51 17 2 0.000000 12.088000 11.375000 17.202000 # O HOH
52 18 1 0.000000 10.490000 16.243999 14.490000 # H HOH
53 18 1 0.000000 9.967000 16.316000 13.033000 # H HOH
54 18 2 0.000000 9.680000 16.129000 13.951000 # O HOH
55 19 1 0.000000 9.669000 3.758000 17.615999 # H HOH
56 19 1 0.000000 11.037000 4.485000 17.587000 # H HOH
57 19 2 0.000000 10.370000 4.113000 18.201000 # O HOH
58 20 1 0.000000 1.606000 10.369000 10.604000 # H HOH
59 20 1 0.000000 1.665000 11.915000 10.504000 # H HOH
60 20 2 0.000000 1.341000 11.119000 10.031000 # O HOH
61 21 1 0.000000 9.993000 19.951000 15.089000 # H HOH
62 21 1 0.000000 10.172000 18.451000 15.437000 # H HOH
63 21 2 0.000000 10.559000 19.336000 15.603000 # O HOH
64 22 1 0.000000 13.109000 8.516000 14.078000 # H HOH
65 22 1 0.000000 14.244000 7.932000 14.957000 # H HOH
66 22 2 0.000000 13.287000 7.841000 14.766000 # O HOH
67 23 1 0.000000 0.013000 9.792000 6.658000 # H HOH
68 23 1 0.000000 0.044000 11.219000 7.261000 # H HOH
69 23 2 0.000000 0.569000 10.395000 7.195000 # O HOH
70 24 1 0.000000 9.895000 8.648000 12.211000 # H HOH
71 24 1 0.000000 9.853000 10.107000 11.690000 # H HOH
72 24 2 0.000000 10.444000 9.454000 12.120000 # O HOH
73 25 1 0.000000 2.660000 3.519000 12.137000 # H HOH
74 25 1 0.000000 4.194000 3.299000 12.081000 # H HOH
75 25 2 0.000000 3.512000 4.003000 12.093000 # O HOH
76 26 1 0.000000 8.089000 0.369000 4.684000 # H HOH
77 26 1 0.000000 6.874000 1.218000 5.140000 # H HOH
78 26 2 0.000000 7.234000 0.731000 4.369000 # O HOH
79 27 1 0.000000 8.148000 4.322000 8.243000 # H HOH
80 27 1 0.000000 6.654000 4.381000 8.653000 # H HOH
81 27 2 0.000000 7.431000 4.950000 8.471000 # O HOH
82 28 1 0.000000 0.803000 9.584000 13.435000 # H HOH
83 28 1 0.000000 1.335000 11.034000 13.557000 # H HOH
84 28 2 0.000000 1.468000 10.128000 13.906000 # O HOH
85 29 1 0.000000 5.230000 14.159000 9.802000 # H HOH
86 29 1 0.000000 5.529000 12.676000 9.464000 # H HOH
87 29 2 0.000000 5.338000 13.276000 10.215000 # O HOH
88 30 1 0.000000 2.369000 13.032000 18.355000 # H HOH
89 30 1 0.000000 1.255000 13.514000 19.319000 # H HOH
90 30 2 0.000000 1.650000 13.692000 18.440001 # O HOH
91 31 1 0.000000 0.783000 6.752000 8.936000 # H HOH
92 31 1 0.000000 2.125000 6.352000 8.272000 # H HOH
93 31 2 0.000000 1.428000 6.017000 8.874000 # O HOH
94 32 1 0.000000 14.868000 11.517000 0.286000 # H HOH
95 32 1 0.000000 14.050000 12.828000 0.175000 # H HOH
96 32 2 0.000000 14.913000 12.477000 0.479000 # O HOH
97 33 1 0.000000 6.782000 16.708000 16.028999 # H HOH
98 33 1 0.000000 5.349000 17.297001 15.973000 # H HOH
99 33 2 0.000000 6.294000 17.556000 15.960000 # O HOH
100 34 1 0.000000 15.982000 14.960000 9.654000 # H HOH
101 34 1 0.000000 14.876000 13.949000 10.051000 # H HOH
102 34 2 0.000000 15.015000 14.886000 9.797000 # O HOH
103 35 1 0.000000 11.011000 16.339001 3.772000 # H HOH
104 35 1 0.000000 11.870000 15.790000 4.940000 # H HOH
105 35 2 0.000000 11.916000 16.367001 4.148000 # O HOH
106 36 1 0.000000 0.179000 16.235001 8.482000 # H HOH
107 36 1 0.000000 1.490000 15.410000 8.503000 # H HOH
108 36 2 0.000000 0.515000 15.315000 8.519000 # O HOH
109 37 1 0.000000 6.555000 14.591000 2.084000 # H HOH
110 37 1 0.000000 7.745000 15.260000 2.819000 # H HOH
111 37 2 0.000000 7.057000 15.431000 2.142000 # O HOH
112 38 1 0.000000 14.814000 9.631000 10.554000 # H HOH
113 38 1 0.000000 14.796000 10.961000 9.759000 # H HOH
114 38 2 0.000000 14.368000 10.081000 9.806000 # O HOH
115 39 1 0.000000 18.688999 6.535000 1.005000 # H HOH
116 39 1 0.000000 17.263000 6.048000 0.644000 # H HOH
117 39 2 0.000000 18.136999 5.727000 0.952000 # O HOH
118 40 1 0.000000 12.659000 3.649000 9.501000 # H HOH
119 40 1 0.000000 12.118000 5.099000 9.410000 # H HOH
120 40 2 0.000000 11.826000 4.165000 9.469000 # O HOH
121 41 1 0.000000 19.900000 17.339001 11.552000 # H HOH
122 41 1 0.000000 19.587000 18.856001 11.515000 # H HOH
123 41 2 0.000000 19.173000 17.983000 11.679000 # O HOH
124 42 1 0.000000 3.350000 2.901000 18.323999 # H HOH
125 42 1 0.000000 4.174000 4.213000 18.266001 # H HOH
126 42 2 0.000000 3.258000 3.877000 18.357000 # O HOH
127 43 1 0.000000 5.531000 14.562000 4.144000 # H HOH
128 43 1 0.000000 6.210000 13.176000 4.279000 # H HOH
129 43 2 0.000000 6.407000 14.135000 4.241000 # O HOH
130 44 1 0.000000 4.147000 2.490000 1.891000 # H HOH
131 44 1 0.000000 4.755000 2.640000 3.309000 # H HOH
132 44 2 0.000000 4.970000 2.339000 2.401000 # O HOH
133 45 1 0.000000 4.059000 9.225000 3.179000 # H HOH
134 45 1 0.000000 5.242000 8.716000 4.042000 # H HOH
135 45 2 0.000000 4.422000 8.416000 3.597000 # O HOH
136 46 1 0.000000 13.122000 14.378000 19.943001 # H HOH
137 46 1 0.000000 11.673000 14.003000 19.539000 # H HOH
138 46 2 0.000000 12.524000 13.610000 19.823999 # O HOH
139 47 1 0.000000 2.392000 6.144000 2.346000 # H HOH
140 47 1 0.000000 3.815000 5.531000 2.297000 # H HOH
141 47 2 0.000000 3.334000 6.357000 2.514000 # O HOH
142 48 1 0.000000 5.043000 6.723000 10.862000 # H HOH
143 48 1 0.000000 4.212000 5.503000 10.390000 # H HOH
144 48 2 0.000000 4.420000 6.433000 10.163000 # O HOH
145 49 1 0.000000 19.486000 15.318000 8.730000 # H HOH
146 49 1 0.000000 19.511000 13.775000 8.588000 # H HOH
147 49 2 0.000000 20.000000 14.585000 8.332000 # O HOH
148 50 1 0.000000 5.945000 10.403000 13.378000 # H HOH
149 50 1 0.000000 6.936000 11.463000 12.832000 # H HOH
150 50 2 0.000000 6.086000 11.020000 12.629000 # O HOH
151 51 1 0.000000 -0.049000 1.990000 9.230000 # H HOH
152 51 1 0.000000 0.791000 3.284000 9.383000 # H HOH
153 51 2 0.000000 0.764000 2.341000 9.650000 # O HOH
154 52 1 0.000000 17.264000 14.386000 16.987000 # H HOH
155 52 1 0.000000 15.721000 14.400000 16.836000 # H HOH
156 52 2 0.000000 16.490000 13.794000 16.875999 # O HOH
157 53 1 0.000000 16.774000 12.816000 10.157000 # H HOH
158 53 1 0.000000 18.316999 12.669000 10.130000 # H HOH
159 53 2 0.000000 17.599001 13.324000 10.003000 # O HOH
160 54 1 0.000000 10.118000 11.616000 9.197000 # H HOH
161 54 1 0.000000 10.553000 13.062000 9.547000 # H HOH
162 54 2 0.000000 9.821000 12.422000 9.669000 # O HOH
163 55 1 0.000000 13.220000 3.758000 16.200001 # H HOH
164 55 1 0.000000 13.777000 2.382000 15.756000 # H HOH
165 55 2 0.000000 13.099000 3.053000 15.530000 # O HOH
166 56 1 0.000000 9.968000 16.952000 17.412001 # H HOH
167 56 1 0.000000 11.232000 16.122999 17.070000 # H HOH
168 56 2 0.000000 10.520000 16.657000 16.659000 # O HOH
169 57 1 0.000000 4.852000 6.641000 17.768000 # H HOH
170 57 1 0.000000 5.830000 7.837000 17.653000 # H HOH
171 57 2 0.000000 4.878000 7.620000 17.733999 # O HOH
172 58 1 0.000000 16.046000 4.470000 10.333000 # H HOH
173 58 1 0.000000 16.190001 3.100000 11.045000 # H HOH
174 58 2 0.000000 16.082001 4.058000 11.222000 # O HOH
175 59 1 0.000000 19.479000 0.999000 3.941000 # H HOH
176 59 1 0.000000 18.014000 0.965000 4.445000 # H HOH
177 59 2 0.000000 18.565001 1.239000 3.682000 # O HOH
178 60 1 0.000000 2.280000 17.219000 18.490999 # H HOH
179 60 1 0.000000 1.058000 18.122000 18.796000 # H HOH
180 60 2 0.000000 1.300000 17.231001 18.468000 # O HOH
181 61 1 0.000000 13.398000 5.439000 18.391001 # H HOH
182 61 1 0.000000 13.793000 4.088000 19.039000 # H HOH
183 61 2 0.000000 14.103000 4.758000 18.395000 # O HOH
184 62 1 0.000000 15.093000 12.372000 18.829000 # H HOH
185 62 1 0.000000 15.288000 13.408000 19.965000 # H HOH
186 62 2 0.000000 15.407000 13.284000 19.000000 # O HOH
187 63 1 0.000000 12.305000 14.154000 12.294000 # H HOH
188 63 1 0.000000 13.719000 13.518000 12.315000 # H HOH
189 63 2 0.000000 13.258000 14.381000 12.260000 # O HOH
190 64 1 0.000000 4.519000 15.462000 1.860000 # H HOH
191 64 1 0.000000 4.137000 16.746000 2.641000 # H HOH
192 64 2 0.000000 3.980000 15.779000 2.615000 # O HOH
193 65 1 0.000000 7.951000 1.327000 8.927000 # H HOH
194 65 1 0.000000 7.824000 0.960000 7.427000 # H HOH
195 65 2 0.000000 7.433000 1.532000 8.120000 # O HOH
196 66 1 0.000000 2.202000 10.319000 17.539000 # H HOH
197 66 1 0.000000 0.753000 10.430000 16.999001 # H HOH
198 66 2 0.000000 1.599000 9.956000 16.856001 # O HOH
199 67 1 0.000000 11.876000 18.541000 4.717000 # H HOH
200 67 1 0.000000 11.543000 20.007000 4.340000 # H HOH
201 67 2 0.000000 12.212000 19.458000 4.800000 # O HOH
202 68 1 0.000000 3.389000 1.002000 12.983000 # H HOH
203 68 1 0.000000 2.005000 1.490000 13.483000 # H HOH
204 68 2 0.000000 2.453000 0.723000 13.069000 # O HOH
205 69 1 0.000000 2.954000 15.233000 14.901000 # H HOH
206 69 1 0.000000 2.523000 16.656000 15.338000 # H HOH
207 69 2 0.000000 2.194000 15.851000 14.886000 # O HOH
208 70 1 0.000000 14.303000 18.569000 10.719000 # H HOH
209 70 1 0.000000 13.017000 17.848000 11.195000 # H HOH
210 70 2 0.000000 13.381000 18.372000 10.451000 # O HOH
211 71 1 0.000000 0.177000 5.018000 5.698000 # H HOH
212 71 1 0.000000 0.591000 3.924000 4.681000 # H HOH
213 71 2 0.000000 0.018000 4.080000 5.460000 # O HOH
214 72 1 0.000000 10.126000 18.611000 1.445000 # H HOH
215 72 1 0.000000 9.430000 19.955000 1.778000 # H HOH
216 72 2 0.000000 10.276000 19.579000 1.456000 # O HOH
217 73 1 0.000000 7.732000 3.342000 18.586000 # H HOH
218 73 1 0.000000 7.331000 4.715000 17.989000 # H HOH
219 73 2 0.000000 7.015000 3.793000 18.093000 # O HOH
220 74 1 0.000000 12.741000 2.005000 17.670000 # H HOH
221 74 1 0.000000 11.743000 0.889000 18.070000 # H HOH
222 74 2 0.000000 12.695000 1.056000 17.907000 # O HOH
223 75 1 0.000000 14.886000 8.437000 18.833000 # H HOH
224 75 1 0.000000 15.041000 7.409000 17.683001 # H HOH
225 75 2 0.000000 15.370000 7.623000 18.580999 # O HOH
226 76 1 0.000000 5.660000 6.841000 5.343000 # H HOH
227 76 1 0.000000 7.136000 6.571000 5.730000 # H HOH
228 76 2 0.000000 6.580000 7.065000 5.091000 # O HOH
229 77 1 0.000000 5.503000 7.760000 1.303000 # H HOH
230 77 1 0.000000 6.414000 8.842000 0.669000 # H HOH
231 77 2 0.000000 5.775000 8.135000 0.439000 # O HOH
232 78 1 0.000000 13.094000 17.555000 0.874000 # H HOH
233 78 1 0.000000 14.624000 17.636999 1.106000 # H HOH
234 78 2 0.000000 13.813000 18.186001 1.089000 # O HOH
235 79 1 0.000000 16.948000 10.633000 10.071000 # H HOH
236 79 1 0.000000 16.957001 9.126000 10.433000 # H HOH
237 79 2 0.000000 17.544001 9.860000 10.156000 # O HOH
238 80 1 0.000000 10.322000 13.609000 2.033000 # H HOH
239 80 1 0.000000 10.211000 13.791000 0.497000 # H HOH
240 80 2 0.000000 10.618000 13.221000 1.183000 # O HOH
241 81 1 0.000000 17.646000 19.527000 1.951000 # H HOH
242 81 1 0.000000 17.954000 18.171000 1.268000 # H HOH
243 81 2 0.000000 17.283001 18.627001 1.817000 # O HOH
244 82 1 0.000000 4.238000 12.425000 2.544000 # H HOH
245 82 1 0.000000 3.265000 12.393000 3.750000 # H HOH
246 82 2 0.000000 3.639000 12.993000 3.072000 # O HOH
247 83 1 0.000000 17.362000 16.844000 3.672000 # H HOH
248 83 1 0.000000 17.063999 17.305000 5.122000 # H HOH
249 83 2 0.000000 17.724001 17.389000 4.402000 # O HOH
250 84 1 0.000000 5.371000 11.924000 16.478001 # H HOH
251 84 1 0.000000 5.370000 11.921000 18.028000 # H HOH
252 84 2 0.000000 5.970000 11.923000 17.253000 # O HOH
253 85 1 0.000000 4.296000 16.931000 9.145000 # H HOH
254 85 1 0.000000 4.932000 18.315001 9.434000 # H HOH
255 85 2 0.000000 4.820000 17.419001 9.815000 # O HOH
256 86 1 0.000000 5.189000 17.586000 6.698000 # H HOH
257 86 1 0.000000 5.717000 18.841000 5.957000 # H HOH
258 86 2 0.000000 4.925000 18.485001 6.411000 # O HOH
259 87 1 0.000000 10.851000 1.596000 12.152000 # H HOH
260 87 1 0.000000 9.347000 1.973000 12.168000 # H HOH
261 87 2 0.000000 10.182000 2.134000 11.679000 # O HOH
262 88 1 0.000000 8.943000 5.834000 20.014000 # H HOH
263 88 1 0.000000 7.489000 6.366000 19.927999 # H HOH
264 88 2 0.000000 8.013000 5.538000 19.917999 # O HOH
265 89 1 0.000000 19.266001 1.408000 19.983999 # H HOH
266 89 1 0.000000 19.427000 2.680000 19.114000 # H HOH
267 89 2 0.000000 19.938999 2.033000 19.643999 # O HOH
268 90 1 0.000000 14.718000 14.191000 14.819000 # H HOH
269 90 1 0.000000 13.271000 13.640000 14.759000 # H HOH
270 90 2 0.000000 14.091000 13.607000 15.294000 # O HOH
271 91 1 0.000000 0.552000 9.041000 19.327000 # H HOH
272 91 1 0.000000 -0.023000 7.602000 19.355000 # H HOH
273 91 2 0.000000 0.822000 8.099000 19.340000 # O HOH
274 92 1 0.000000 13.873000 3.759000 6.617000 # H HOH
275 92 1 0.000000 14.646000 2.460000 6.959000 # H HOH
276 92 2 0.000000 14.779000 3.407000 6.742000 # O HOH
277 93 1 0.000000 3.428000 9.532000 15.654000 # H HOH
278 93 1 0.000000 3.101000 8.456000 14.587000 # H HOH
279 93 2 0.000000 3.773000 8.706000 15.255000 # O HOH
280 94 1 0.000000 16.209000 14.514000 4.442000 # H HOH
281 94 1 0.000000 15.519000 14.470000 5.830000 # H HOH
282 94 2 0.000000 15.779000 15.085000 5.112000 # O HOH
283 95 1 0.000000 11.374000 3.950000 12.149000 # H HOH
284 95 1 0.000000 12.713000 4.581000 11.688000 # H HOH
285 95 2 0.000000 12.193000 3.751000 11.648000 # O HOH
286 96 1 0.000000 6.427000 5.275000 15.045000 # H HOH
287 96 1 0.000000 5.679000 6.432000 14.335000 # H HOH
288 96 2 0.000000 5.964000 5.503000 14.211000 # O HOH
289 97 1 0.000000 6.571000 17.959999 3.553000 # H HOH
290 97 1 0.000000 6.634000 19.475000 3.230000 # H HOH
291 97 2 0.000000 7.140000 18.639999 3.136000 # O HOH
292 98 1 0.000000 14.710000 3.882000 14.266000 # H HOH
293 98 1 0.000000 14.510000 5.302000 14.853000 # H HOH
294 98 2 0.000000 15.188000 4.606000 14.722000 # O HOH
295 99 1 0.000000 5.154000 13.913000 13.053000 # H HOH
296 99 1 0.000000 5.847000 15.070000 13.817000 # H HOH
297 99 2 0.000000 5.112000 14.882000 13.197000 # O HOH
298 100 1 0.000000 16.054001 6.866000 9.491000 # H HOH
299 100 1 0.000000 14.610000 6.302000 9.493000 # H HOH
300 100 2 0.000000 15.114000 7.143000 9.508000 # O HOH

 Bonds

1 1 1 3
2 1 2 3
3 1 4 6
4 1 5 6
5 1 7 9
6 1 8 9
7 1 10 12
8 1 11 12
9 1 13 15
10 1 14 15
11 1 16 18
12 1 17 18
13 1 19 21
14 1 20 21
15 1 22 24
16 1 23 24
17 1 25 27
18 1 26 27
19 1 28 30
20 1 29 30
21 1 31 33
22 1 32 33
23 1 34 36
24 1 35 36
25 1 37 39
26 1 38 39
27 1 40 42
28 1 41 42
29 1 43 45
30 1 44 45
31 1 46 48
32 1 47 48
33 1 49 51
34 1 50 51
35 1 52 54
36 1 53 54
37 1 55 57
38 1 56 57
39 1 58 60
40 1 59 60
41 1 61 63
42 1 62 63
43 1 64 66
44 1 65 66
45 1 67 69
46 1 68 69
47 1 70 72
48 1 71 72
49 1 73 75
50 1 74 75
51 1 76 78
52 1 77 78
53 1 79 81
54 1 80 81
55 1 82 84
56 1 83 84
57 1 85 87
58 1 86 87
59 1 88 90
60 1 89 90
61 1 91 93
62 1 92 93
63 1 94 96
64 1 95 96
65 1 97 99
66 1 98 99
67 1 100 102
68 1 101 102
69 1 103 105
70 1 104 105
71 1 106 108
72 1 107 108
73 1 109 111
74 1 110 111
75 1 112 114
76 1 113 114
77 1 115 117
78 1 116 117
79 1 118 120
80 1 119 120
81 1 121 123
82 1 122 123
83 1 124 126
84 1 125 126
85 1 127 129
86 1 128 129
87 1 130 132
88 1 131 132
89 1 133 135
90 1 134 135
91 1 136 138
92 1 137 138
93 1 139 141
94 1 140 141
95 1 142 144
96 1 143 144
97 1 145 147
98 1 146 147
99 1 148 150
100 1 149 150
101 1 151 153
102 1 152 153
103 1 154 156
104 1 155 156
105 1 157 159
106 1 158 159
107 1 160 162
108 1 161 162
109 1 163 165
110 1 164 165
111 1 166 168
112 1 167 168
113 1 169 171
114 1 170 171
115 1 172 174
116 1 173 174
117 1 175 177
118 1 176 177
119 1 178 180
120 1 179 180
121 1 181 183
122 1 182 183
123 1 184 186
124 1 185 186
125 1 187 189
126 1 188 189
127 1 190 192
128 1 191 192
129 1 193 195
130 1 194 195
131 1 196 198
132 1 197 198
133 1 199 201
134 1 200 201
135 1 202 204
136 1 203 204
137 1 205 207
138 1 206 207
139 1 208 210
140 1 209 210
141 1 211 213
142 1 212 213
143 1 214 216
144 1 215 216
145 1 217 219
146 1 218 219
147 1 220 222
148 1 221 222
149 1 223 225
150 1 224 225
151 1 226 228
152 1 227 228
153 1 229 231
154 1 230 231
155 1 232 234
156 1 233 234
157 1 235 237
158 1 236 237
159 1 238 240
160 1 239 240
161 1 241 243
162 1 242 243
163 1 244 246
164 1 245 246
165 1 247 249
166 1 248 249
167 1 250 252
168 1 251 252
169 1 253 255
170 1 254 255
171 1 256 258
172 1 257 258
173 1 259 261
174 1 260 261
175 1 262 264
176 1 263 264
177 1 265 267
178 1 266 267
179 1 268 270
180 1 269 270
181 1 271 273
182 1 272 273
183 1 274 276
184 1 275 276
185 1 277 279
186 1 278 279
187 1 280 282
188 1 281 282
189 1 283 285
190 1 284 285
191 1 286 288
192 1 287 288
193 1 289 291
194 1 290 291
195 1 292 294
196 1 293 294
197 1 295 297
198 1 296 297
199 1 298 300
200 1 299 300

 Angles

1 1 1 3 2
2 1 4 6 5
3 1 7 9 8
4 1 10 12 11
5 1 13 15 14
6 1 16 18 17
7 1 19 21 20
8 1 22 24 23
9 1 25 27 26
10 1 28 30 29
11 1 31 33 32
12 1 34 36 35
13 1 37 39 38
14 1 40 42 41
15 1 43 45 44
16 1 46 48 47
17 1 49 51 50
18 1 52 54 53
19 1 55 57 56
20 1 58 60 59
21 1 61 63 62
22 1 64 66 65
23 1 67 69 68
24 1 70 72 71
25 1 73 75 74
26 1 76 78 77
27 1 79 81 80
28 1 82 84 83
29 1 85 87 86
30 1 88 90 89
31 1 91 93 92
32 1 94 96 95
33 1 97 99 98
34 1 100 102 101
35 1 103 105 104
36 1 106 108 107
37 1 109 111 110
38 1 112 114 113
39 1 115 117 116
40 1 118 120 119
41 1 121 123 122
42 1 124 126 125
43 1 127 129 128
44 1 130 132 131
45 1 133 135 134
46 1 136 138 137
47 1 139 141 140
48 1 142 144 143
49 1 145 147 146
50 1 148 150 149
51 1 151 153 152
52 1 154 156 155
53 1 157 159 158
54 1 160 162 161
55 1 163 165 164
56 1 166 168 167
57 1 169 171 170
58 1 172 174 173
59 1 175 177 176
60 1 178 180 179
61 1 181 183 182
62 1 184 186 185
63 1 187 189 188
64 1 190 192 191
65 1 193 195 194
66 1 196 198 197
67 1 199 201 200
68 1 202 204 203
69 1 205 207 206
70 1 208 210 209
71 1 211 213 212
72 1 214 216 215
73 1 217 219 218
74 1 220 222 221
75 1 223 225 224
76 1 226 228 227
77 1 229 231 230
78 1 232 234 233
79 1 235 237 236
80 1 238 240 239
81 1 241 243 242
82 1 244 246 245
83 1 247 249 248
84 1 250 252 251
85 1 253 255 254
86 1 256 258 257
87 1 259 261 260
88 1 262 264 263
89 1 265 267 266
90 1 268 270 269
91 1 271 273 272
92 1 274 276 275
93 1 277 279 278
94 1 280 282 281
95 1 283 285 284
96 1 286 288 287
97 1 289 291 290
98 1 292 294 293
99 1 295 297 296
100 1 298 300 299

