LAMMPS data file. CGCMM style. atom_style full generated by VMD/TopoTools v1.8 on Wed Mar 18 19:12:52 +0100 2026
 300 atoms
 200 bonds
 100 angles
 0 dihedrals
 0 impropers
 2 atom types
 1 bond types
 1 angle types
 0 dihedral types
 0 improper types
 -0.681502 100.318498  xlo xhi
 -0.469500 10.610500  ylo yhi
 -0.451500 10.548500  zlo zhi

# Pair Coeffs
#
# 1  H
# 2  O

# Bond Coeffs
#
# 1  

# Angle Coeffs
#
# 1  H-O-H

 Masses

 1 1.008000 # H
 2 15.999000 # O

 Atoms # full

1 1 1 0.000000 48.138000 0.005000 8.285000 # H HOH
2 1 1 0.000000 46.973999 0.724000 9.013000 # H HOH
3 1 2 0.000000 47.676998 0.868000 8.345000 # O HOH
4 2 1 0.000000 1.527000 1.835000 1.419000 # H HOH
5 2 1 0.000000 0.033000 1.539000 1.707000 # H HOH
6 2 2 0.000000 0.908000 1.602000 2.143000 # O HOH
7 3 1 0.000000 45.984001 6.285000 1.510000 # H HOH
8 3 1 0.000000 46.347000 5.019000 2.327000 # H HOH
9 3 2 0.000000 46.674000 5.595000 1.604000 # O HOH
10 4 1 0.000000 53.423000 7.098000 8.783000 # H HOH
11 4 1 0.000000 54.084999 5.702000 8.907000 # H HOH
12 4 2 0.000000 53.276001 6.200000 9.148000 # O HOH
13 5 1 0.000000 21.792999 0.713000 4.254000 # H HOH
14 5 1 0.000000 21.205000 1.357000 2.973000 # H HOH
15 5 2 0.000000 22.049999 1.066000 3.377000 # O HOH
16 6 1 0.000000 86.476997 1.837000 2.404000 # H HOH
17 6 1 0.000000 87.269997 0.518000 2.588000 # H HOH
18 6 2 0.000000 87.042000 1.199000 1.921000 # O HOH
19 7 1 0.000000 35.574001 1.249000 9.956000 # H HOH
20 7 1 0.000000 37.041000 1.598000 9.597000 # H HOH
21 7 2 0.000000 36.157001 2.002000 9.723000 # O HOH
22 8 1 0.000000 50.015999 2.843000 0.576000 # H HOH
23 8 1 0.000000 50.716000 4.095000 1.161000 # H HOH
24 8 2 0.000000 49.949001 3.820000 0.617000 # O HOH
25 9 1 0.000000 58.893002 3.922000 3.857000 # H HOH
26 9 1 0.000000 58.715000 4.098000 5.387000 # H HOH
27 9 2 0.000000 59.230000 4.433000 4.623000 # O HOH
28 10 1 0.000000 10.248000 2.211000 4.055000 # H HOH
29 10 1 0.000000 11.083000 1.657000 2.872000 # H HOH
30 10 2 0.000000 10.999000 1.616000 3.848000 # O HOH
31 11 1 0.000000 42.610001 9.066000 0.579000 # H HOH
32 11 1 0.000000 43.838001 8.126000 0.489000 # H HOH
33 11 2 0.000000 43.589001 9.072000 0.542000 # O HOH
34 12 1 0.000000 36.862000 3.196000 6.462000 # H HOH
35 12 1 0.000000 37.695999 4.270000 5.718000 # H HOH
36 12 2 0.000000 37.618000 3.301000 5.847000 # O HOH
37 13 1 0.000000 82.986000 2.377000 6.929000 # H HOH
38 13 1 0.000000 82.596001 3.877000 6.897000 # H HOH
39 13 2 0.000000 83.362000 3.277000 7.022000 # O HOH
40 14 1 0.000000 64.180000 7.435000 1.587000 # H HOH
41 14 1 0.000000 65.084000 6.230000 1.222000 # H HOH
42 14 2 0.000000 65.117996 7.182000 1.452000 # O HOH
43 15 1 0.000000 90.734001 3.740000 9.072000 # H HOH
44 15 1 0.000000 91.259003 4.295000 7.723000 # H HOH
45 15 2 0.000000 90.736000 3.561000 8.108000 # O HOH
46 16 1 0.000000 5.074000 9.746000 7.965000 # H HOH
47 16 1 0.000000 6.224000 9.997000 8.974000 # H HOH
48 16 2 0.000000 6.019000 10.002000 8.016000 # O HOH
49 17 1 0.000000 34.387001 4.733000 4.547000 # H HOH
50 17 1 0.000000 34.289001 4.918000 6.083000 # H HOH
51 17 2 0.000000 34.713001 5.293000 5.282000 # O HOH
52 18 1 0.000000 57.110001 5.919000 9.484000 # H HOH
53 18 1 0.000000 56.985001 6.143000 7.955000 # H HOH
54 18 2 0.000000 56.466999 5.884000 8.745000 # O HOH
55 19 1 0.000000 48.020000 7.466000 7.276000 # H HOH
56 19 1 0.000000 49.404999 8.150000 7.148000 # H HOH
57 19 2 0.000000 48.757000 7.830000 7.810000 # O HOH
58 20 1 0.000000 49.193001 2.205000 9.491000 # H HOH
59 20 1 0.000000 48.997002 3.714000 9.199000 # H HOH
60 20 2 0.000000 48.813999 2.824000 8.833000 # O HOH
61 21 1 0.000000 7.858000 6.860000 4.318000 # H HOH
62 21 1 0.000000 8.276000 5.565000 5.059000 # H HOH
63 21 2 0.000000 8.318000 6.542000 5.123000 # O HOH
64 22 1 0.000000 52.214001 10.000000 7.501000 # H HOH
65 22 1 0.000000 51.306000 8.850000 8.007000 # H HOH
66 22 2 0.000000 51.282001 9.786000 7.717000 # O HOH
67 23 1 0.000000 76.583000 4.743000 6.538000 # H HOH
68 23 1 0.000000 77.150002 6.046000 7.158000 # H HOH
69 23 2 0.000000 77.365997 5.102000 7.007000 # O HOH
70 24 1 0.000000 50.384998 3.546000 6.615000 # H HOH
71 24 1 0.000000 49.763000 4.915000 6.238000 # H HOH
72 24 2 0.000000 50.605000 4.496000 6.513000 # O HOH
73 25 1 0.000000 16.510000 1.559000 6.143000 # H HOH
74 25 1 0.000000 18.041000 1.372000 5.990000 # H HOH
75 25 2 0.000000 17.343000 2.060000 6.023000 # O HOH
76 26 1 0.000000 36.278000 0.003000 1.754000 # H HOH
77 26 1 0.000000 34.908001 0.215000 2.447000 # H HOH
78 26 2 0.000000 35.327000 0.139000 1.564000 # O HOH
79 27 1 0.000000 36.214001 1.699000 4.559000 # H HOH
80 27 1 0.000000 34.945000 2.582000 4.446000 # H HOH
81 27 2 0.000000 35.922001 2.633000 4.509000 # O HOH
82 28 1 0.000000 4.772000 4.050000 6.145000 # H HOH
83 28 1 0.000000 5.764000 5.168000 6.557000 # H HOH
84 28 2 0.000000 5.501000 4.248000 6.770000 # O HOH
85 29 1 0.000000 28.628000 7.661000 4.493000 # H HOH
86 29 1 0.000000 28.465000 6.123000 4.582000 # H HOH
87 29 2 0.000000 28.566000 6.924000 5.136000 # O HOH
88 30 1 0.000000 3.277000 5.771000 0.008000 # H HOH
89 30 1 0.000000 2.163000 6.253000 0.971000 # H HOH
90 30 2 0.000000 2.558000 6.432000 0.092000 # O HOH
91 31 1 0.000000 8.009000 6.567000 9.995000 # H HOH
92 31 1 0.000000 6.733000 7.446000 9.980000 # H HOH
93 31 2 0.000000 7.712000 7.500000 9.978000 # O HOH
94 32 1 0.000000 5.731000 2.779000 4.528000 # H HOH
95 32 1 0.000000 6.529000 4.079000 4.253000 # H HOH
96 32 2 0.000000 6.600000 3.102000 4.211000 # O HOH
97 33 1 0.000000 76.268997 5.385000 0.679000 # H HOH
98 33 1 0.000000 74.828003 5.952000 0.611000 # H HOH
99 33 2 0.000000 75.769997 6.224000 0.594000 # O HOH
100 34 1 0.000000 3.917000 0.010000 9.026000 # H HOH
101 34 1 0.000000 2.425000 -0.000000 9.444000 # H HOH
102 34 2 0.000000 3.128000 0.587000 9.094000 # O HOH
103 35 1 0.000000 30.639999 8.731000 7.512000 # H HOH
104 35 1 0.000000 31.513000 8.097000 8.625000 # H HOH
105 35 2 0.000000 31.556999 8.704000 7.856000 # O HOH
106 36 1 0.000000 76.781998 7.845000 4.956000 # H HOH
107 36 1 0.000000 78.169998 7.154000 4.962000 # H HOH
108 36 2 0.000000 77.209000 6.962000 4.968000 # O HOH
109 37 1 0.000000 59.346001 6.865000 1.872000 # H HOH
110 37 1 0.000000 60.705002 7.610000 1.850000 # H HOH
111 37 2 0.000000 59.737000 7.764000 1.872000 # O HOH
112 38 1 0.000000 2.875000 7.186000 4.249000 # H HOH
113 38 1 0.000000 4.168000 8.040000 4.248000 # H HOH
114 38 2 0.000000 3.191000 8.113000 4.230000 # O HOH
115 39 1 0.000000 40.835999 7.150000 1.655000 # H HOH
116 39 1 0.000000 39.415001 7.118000 1.038000 # H HOH
117 39 2 0.000000 40.077999 6.552000 1.485000 # O HOH
118 40 1 0.000000 68.820999 3.736000 4.900000 # H HOH
119 40 1 0.000000 67.642998 4.740000 4.814000 # H HOH
120 40 2 0.000000 67.842003 3.783000 4.881000 # O HOH
121 41 1 0.000000 61.994999 1.408000 4.724000 # H HOH
122 41 1 0.000000 61.681999 2.925000 4.687000 # H HOH
123 41 2 0.000000 61.268002 2.052000 4.851000 # O HOH
124 42 1 0.000000 98.262001 8.299000 5.998000 # H HOH
125 42 1 0.000000 98.596001 9.812000 5.968000 # H HOH
126 42 2 0.000000 97.846001 9.186000 6.045000 # O HOH
127 43 1 0.000000 28.853001 5.049000 9.098000 # H HOH
128 43 1 0.000000 29.875000 4.272000 9.967000 # H HOH
129 43 2 0.000000 29.676001 5.166000 9.618000 # O HOH
130 44 1 0.000000 21.945999 1.766000 8.368000 # H HOH
131 44 1 0.000000 22.555000 1.916000 9.786000 # H HOH
132 44 2 0.000000 22.770000 1.615000 8.878000 # O HOH
133 45 1 0.000000 29.525000 7.243000 1.470000 # H HOH
134 45 1 0.000000 30.708000 6.734000 2.333000 # H HOH
135 45 2 0.000000 29.888000 6.434000 1.887000 # O HOH
136 46 1 0.000000 23.808001 0.522000 1.154000 # H HOH
137 46 1 0.000000 23.417000 1.850000 0.456000 # H HOH
138 46 2 0.000000 23.098000 0.938000 0.621000 # O HOH
139 47 1 0.000000 22.087000 3.917000 1.784000 # H HOH
140 47 1 0.000000 23.580999 4.320000 1.876000 # H HOH
141 47 2 0.000000 22.674000 4.678000 1.978000 # O HOH
142 48 1 0.000000 68.133003 7.436000 10.000000 # H HOH
143 48 1 0.000000 67.183998 6.250000 9.692000 # H HOH
144 48 2 0.000000 67.413002 7.156000 9.397000 # O HOH
145 49 1 0.000000 15.597000 3.747000 1.369000 # H HOH
146 49 1 0.000000 15.622000 2.203000 1.229000 # H HOH
147 49 2 0.000000 16.113001 3.013000 0.973000 # O HOH
148 50 1 0.000000 24.259001 2.491000 5.879000 # H HOH
149 50 1 0.000000 24.851000 3.707000 5.121000 # H HOH
150 50 2 0.000000 24.143000 3.031000 5.069000 # O HOH
151 51 1 0.000000 98.372002 6.787000 3.885000 # H HOH
152 51 1 0.000000 99.603996 7.720000 3.995000 # H HOH
153 51 2 0.000000 99.280998 6.830000 4.247000 # O HOH
154 52 1 0.000000 32.011002 6.123000 6.147000 # H HOH
155 52 1 0.000000 30.471001 6.138000 5.968000 # H HOH
156 52 2 0.000000 31.240000 5.532000 6.015000 # O HOH
157 53 1 0.000000 1.448000 1.732000 4.306000 # H HOH
158 53 1 0.000000 2.697000 0.817000 4.381000 # H HOH
159 53 2 0.000000 2.423000 1.741000 4.206000 # O HOH
160 54 1 0.000000 81.879997 6.236000 8.195000 # H HOH
161 54 1 0.000000 82.315002 7.682000 8.545000 # H HOH
162 54 2 0.000000 81.583000 7.041000 8.667000 # O HOH
163 55 1 0.000000 86.814003 7.136000 5.568000 # H HOH
164 55 1 0.000000 87.228996 5.697000 5.169000 # H HOH
165 55 2 0.000000 86.557999 6.388000 4.988000 # O HOH
166 56 1 0.000000 51.683998 5.905000 4.020000 # H HOH
167 56 1 0.000000 50.548000 6.828000 4.530000 # H HOH
168 56 2 0.000000 51.490002 6.836000 4.260000 # O HOH
169 57 1 0.000000 64.612000 0.800000 8.628000 # H HOH
170 57 1 0.000000 65.931000 1.504000 8.216000 # H HOH
171 57 2 0.000000 64.999001 1.685000 8.462000 # O HOH
172 58 1 0.000000 45.972000 8.244000 7.645000 # H HOH
173 58 1 0.000000 45.907001 6.946000 8.489000 # H HOH
174 58 2 0.000000 45.901001 7.923000 8.568000 # O HOH
175 59 1 0.000000 26.959000 2.703000 9.080000 # H HOH
176 59 1 0.000000 25.771999 3.642000 8.748000 # H HOH
177 59 2 0.000000 26.608000 3.289000 8.377000 # O HOH
178 60 1 0.000000 78.237999 0.840000 5.976000 # H HOH
179 60 1 0.000000 77.455002 2.110000 6.394000 # H HOH
180 60 2 0.000000 77.332001 1.211000 6.025000 # O HOH
181 61 1 0.000000 90.001999 1.691000 1.933000 # H HOH
182 61 1 0.000000 89.907997 0.310000 2.630000 # H HOH
183 61 2 0.000000 90.472000 0.836000 2.026000 # O HOH
184 62 1 0.000000 8.900000 8.414000 7.068000 # H HOH
185 62 1 0.000000 9.007000 7.366000 8.205000 # H HOH
186 62 2 0.000000 8.844000 8.319000 8.042000 # O HOH
187 63 1 0.000000 69.510002 2.599000 9.256000 # H HOH
188 63 1 0.000000 70.973000 2.087000 9.264000 # H HOH
189 63 2 0.000000 70.440002 2.909000 9.235000 # O HOH
190 64 1 0.000000 66.383003 6.959000 5.546000 # H HOH
191 64 1 0.000000 65.898003 8.059000 6.524000 # H HOH
192 64 2 0.000000 65.870003 7.092000 6.371000 # O HOH
193 65 1 0.000000 21.653000 8.547000 1.678000 # H HOH
194 65 1 0.000000 21.219999 8.462000 0.193000 # H HOH
195 65 2 0.000000 21.056000 8.960000 1.021000 # O HOH
196 66 1 0.000000 38.945000 0.655000 4.638000 # H HOH
197 66 1 0.000000 38.563000 1.495000 3.393000 # H HOH
198 66 2 0.000000 38.978001 0.647000 3.659000 # O HOH
199 67 1 0.000000 6.223000 4.377000 9.499000 # H HOH
200 67 1 0.000000 5.430000 5.617000 9.015000 # H HOH
201 67 2 0.000000 6.239000 5.357000 9.502000 # O HOH
202 68 1 0.000000 59.001999 10.001000 1.751000 # H HOH
203 68 1 0.000000 57.546001 9.899000 2.270000 # H HOH
204 68 2 0.000000 58.229000 9.399000 1.777000 # O HOH
205 69 1 0.000000 13.591000 0.063000 6.333000 # H HOH
206 69 1 0.000000 13.161000 1.486000 6.769000 # H HOH
207 69 2 0.000000 12.831000 0.681000 6.318000 # O HOH
208 70 1 0.000000 13.370000 8.215000 7.436000 # H HOH
209 70 1 0.000000 12.084000 7.494000 7.912000 # H HOH
210 70 2 0.000000 12.448000 8.018000 7.169000 # O HOH
211 71 1 0.000000 67.903000 9.671000 5.855000 # H HOH
212 71 1 0.000000 68.605003 8.806000 4.777000 # H HOH
213 71 2 0.000000 67.964996 8.753000 5.518000 # O HOH
214 72 1 0.000000 5.628000 1.987000 2.339000 # H HOH
215 72 1 0.000000 5.902000 0.733000 3.209000 # H HOH
216 72 2 0.000000 5.182000 1.328000 2.911000 # O HOH
217 73 1 0.000000 53.639000 8.898000 1.046000 # H HOH
218 73 1 0.000000 52.625999 9.999000 1.448000 # H HOH
219 73 2 0.000000 53.044998 9.580000 0.668000 # O HOH
220 74 1 0.000000 30.600000 1.325000 8.187000 # H HOH
221 74 1 0.000000 30.246000 0.612000 9.517000 # H HOH
222 74 2 0.000000 30.993000 0.791000 8.908000 # O HOH
223 75 1 0.000000 60.729000 1.290000 9.117000 # H HOH
224 75 1 0.000000 60.683998 0.122000 8.098000 # H HOH
225 75 2 0.000000 61.136002 0.421000 8.915000 # O HOH
226 76 1 0.000000 73.929001 3.739000 9.153000 # H HOH
227 76 1 0.000000 75.405998 3.469000 9.540000 # H HOH
228 76 2 0.000000 74.849998 3.963000 8.902000 # O HOH
229 77 1 0.000000 31.915001 2.907000 3.188000 # H HOH
230 77 1 0.000000 32.826000 3.989000 2.554000 # H HOH
231 77 2 0.000000 32.187000 3.282000 2.324000 # O HOH
232 78 1 0.000000 28.726999 3.861000 0.252000 # H HOH
233 78 1 0.000000 30.257999 3.942000 0.484000 # H HOH
234 78 2 0.000000 29.445999 4.492000 0.467000 # O HOH
235 79 1 0.000000 70.253998 9.055000 0.192000 # H HOH
236 79 1 0.000000 68.825996 9.029000 0.794000 # H HOH
237 79 2 0.000000 69.573997 8.445000 0.546000 # O HOH
238 80 1 0.000000 83.152000 6.667000 5.918000 # H HOH
239 80 1 0.000000 83.286003 5.245000 5.318000 # H HOH
240 80 2 0.000000 83.457001 5.761000 6.133000 # O HOH
241 81 1 0.000000 48.721001 7.998000 0.770000 # H HOH
242 81 1 0.000000 49.050999 6.659000 0.063000 # H HOH
243 81 2 0.000000 48.374001 7.094000 0.623000 # O HOH
244 82 1 0.000000 89.528000 9.405000 0.107000 # H HOH
245 82 1 0.000000 88.519997 9.200000 1.268000 # H HOH
246 82 2 0.000000 88.858002 9.877000 0.645000 # O HOH
247 83 1 0.000000 20.230000 5.628000 0.976000 # H HOH
248 83 1 0.000000 19.968000 5.770000 2.497000 # H HOH
249 83 2 0.000000 20.627001 5.977000 1.801000 # O HOH
250 84 1 0.000000 86.005997 7.882000 1.649000 # H HOH
251 84 1 0.000000 86.030998 8.432000 3.098000 # H HOH
252 84 2 0.000000 86.598000 8.299000 2.310000 # O HOH
253 85 1 0.000000 34.363998 6.186000 8.314000 # H HOH
254 85 1 0.000000 34.990002 7.569000 8.627000 # H HOH
255 85 2 0.000000 34.862000 6.673000 9.003000 # O HOH
256 86 1 0.000000 23.478001 8.062000 5.183000 # H HOH
257 86 1 0.000000 23.351999 9.300000 4.258000 # H HOH
258 86 2 0.000000 22.851999 8.766000 4.910000 # O HOH
259 87 1 0.000000 27.021000 8.710000 3.309000 # H HOH
260 87 1 0.000000 25.655001 9.411000 3.099000 # H HOH
261 87 2 0.000000 26.562000 9.357000 2.733000 # O HOH
262 88 1 0.000000 51.564999 0.732000 6.121000 # H HOH
263 88 1 0.000000 50.212002 1.462000 5.930000 # H HOH
264 88 2 0.000000 50.625999 0.575000 5.890000 # O HOH
265 89 1 0.000000 98.005997 0.358000 10.000000 # H HOH
266 89 1 0.000000 98.193001 1.691000 9.231000 # H HOH
267 89 2 0.000000 98.692001 0.995000 9.707000 # O HOH
268 90 1 0.000000 71.786003 7.233000 7.468000 # H HOH
269 90 1 0.000000 70.325996 6.732000 7.327000 # H HOH
270 90 2 0.000000 71.114998 6.666000 7.904000 # O HOH
271 91 1 0.000000 3.226000 4.641000 9.998000 # H HOH
272 91 1 0.000000 4.147000 3.750000 9.126000 # H HOH
273 91 2 0.000000 4.091000 4.180000 10.005000 # O HOH
274 92 1 0.000000 74.404999 0.550000 2.239000 # H HOH
275 92 1 0.000000 75.636002 0.063000 3.045000 # H HOH
276 92 2 0.000000 75.342003 0.767000 2.430000 # O HOH
277 93 1 0.000000 16.364000 5.069000 8.091000 # H HOH
278 93 1 0.000000 15.709000 4.168000 7.014000 # H HOH
279 93 2 0.000000 16.479000 4.218000 7.618000 # O HOH
280 94 1 0.000000 80.859001 7.348000 1.886000 # H HOH
281 94 1 0.000000 80.117996 7.201000 3.240000 # H HOH
282 94 2 0.000000 80.389999 7.866000 2.573000 # O HOH
283 95 1 0.000000 66.827003 2.353000 6.339000 # H HOH
284 95 1 0.000000 68.250999 1.885000 5.944000 # H HOH
285 95 2 0.000000 67.323997 1.575000 6.009000 # O HOH
286 96 1 0.000000 29.372999 3.178000 8.064000 # H HOH
287 96 1 0.000000 28.326000 3.648000 7.023000 # H HOH
288 96 2 0.000000 28.955999 2.922000 7.215000 # O HOH
289 97 1 0.000000 34.064999 8.484000 1.850000 # H HOH
290 97 1 0.000000 34.109001 10.000000 1.532000 # H HOH
291 97 2 0.000000 34.623001 9.172000 1.431000 # O HOH
292 98 1 0.000000 70.455002 1.466000 6.316000 # H HOH
293 98 1 0.000000 70.624001 2.894000 6.894000 # H HOH
294 98 2 0.000000 71.114998 2.063000 6.726000 # O HOH
295 99 1 0.000000 25.916000 6.575000 6.537000 # H HOH
296 99 1 0.000000 26.950001 6.744000 7.679000 # H HOH
297 99 2 0.000000 26.514999 7.232000 6.949000 # O HOH
298 100 1 0.000000 74.999001 3.595000 4.295000 # H HOH
299 100 1 0.000000 75.295998 5.052000 4.731000 # H HOH
300 100 2 0.000000 75.724998 4.183000 4.591000 # O HOH

 Bonds

1 1 1 3
2 1 2 3
3 1 4 6
4 1 5 6
5 1 7 9
6 1 8 9
7 1 10 12
8 1 11 12
9 1 13 15
10 1 14 15
11 1 16 18
12 1 17 18
13 1 19 21
14 1 20 21
15 1 22 24
16 1 23 24
17 1 25 27
18 1 26 27
19 1 28 30
20 1 29 30
21 1 31 33
22 1 32 33
23 1 34 36
24 1 35 36
25 1 37 39
26 1 38 39
27 1 40 42
28 1 41 42
29 1 43 45
30 1 44 45
31 1 46 48
32 1 47 48
33 1 49 51
34 1 50 51
35 1 52 54
36 1 53 54
37 1 55 57
38 1 56 57
39 1 58 60
40 1 59 60
41 1 61 63
42 1 62 63
43 1 64 66
44 1 65 66
45 1 67 69
46 1 68 69
47 1 70 72
48 1 71 72
49 1 73 75
50 1 74 75
51 1 76 78
52 1 77 78
53 1 79 81
54 1 80 81
55 1 82 84
56 1 83 84
57 1 85 87
58 1 86 87
59 1 88 90
60 1 89 90
61 1 91 93
62 1 92 93
63 1 94 96
64 1 95 96
65 1 97 99
66 1 98 99
67 1 100 102
68 1 101 102
69 1 103 105
70 1 104 105
71 1 106 108
72 1 107 108
73 1 109 111
74 1 110 111
75 1 112 114
76 1 113 114
77 1 115 117
78 1 116 117
79 1 118 120
80 1 119 120
81 1 121 123
82 1 122 123
83 1 124 126
84 1 125 126
85 1 127 129
86 1 128 129
87 1 130 132
88 1 131 132
89 1 133 135
90 1 134 135
91 1 136 138
92 1 137 138
93 1 139 141
94 1 140 141
95 1 142 144
96 1 143 144
97 1 145 147
98 1 146 147
99 1 148 150
100 1 149 150
101 1 151 153
102 1 152 153
103 1 154 156
104 1 155 156
105 1 157 159
106 1 158 159
107 1 160 162
108 1 161 162
109 1 163 165
110 1 164 165
111 1 166 168
112 1 167 168
113 1 169 171
114 1 170 171
115 1 172 174
116 1 173 174
117 1 175 177
118 1 176 177
119 1 178 180
120 1 179 180
121 1 181 183
122 1 182 183
123 1 184 186
124 1 185 186
125 1 187 189
126 1 188 189
127 1 190 192
128 1 191 192
129 1 193 195
130 1 194 195
131 1 196 198
132 1 197 198
133 1 199 201
134 1 200 201
135 1 202 204
136 1 203 204
137 1 205 207
138 1 206 207
139 1 208 210
140 1 209 210
141 1 211 213
142 1 212 213
143 1 214 216
144 1 215 216
145 1 217 219
146 1 218 219
147 1 220 222
148 1 221 222
149 1 223 225
150 1 224 225
151 1 226 228
152 1 227 228
153 1 229 231
154 1 230 231
155 1 232 234
156 1 233 234
157 1 235 237
158 1 236 237
159 1 238 240
160 1 239 240
161 1 241 243
162 1 242 243
163 1 244 246
164 1 245 246
165 1 247 249
166 1 248 249
167 1 250 252
168 1 251 252
169 1 253 255
170 1 254 255
171 1 256 258
172 1 257 258
173 1 259 261
174 1 260 261
175 1 262 264
176 1 263 264
177 1 265 267
178 1 266 267
179 1 268 270
180 1 269 270
181 1 271 273
182 1 272 273
183 1 274 276
184 1 275 276
185 1 277 279
186 1 278 279
187 1 280 282
188 1 281 282
189 1 283 285
190 1 284 285
191 1 286 288
192 1 287 288
193 1 289 291
194 1 290 291
195 1 292 294
196 1 293 294
197 1 295 297
198 1 296 297
199 1 298 300
200 1 299 300

 Angles

1 1 1 3 2
2 1 4 6 5
3 1 7 9 8
4 1 10 12 11
5 1 13 15 14
6 1 16 18 17
7 1 19 21 20
8 1 22 24 23
9 1 25 27 26
10 1 28 30 29
11 1 31 33 32
12 1 34 36 35
13 1 37 39 38
14 1 40 42 41
15 1 43 45 44
16 1 46 48 47
17 1 49 51 50
18 1 52 54 53
19 1 55 57 56
20 1 58 60 59
21 1 61 63 62
22 1 64 66 65
23 1 67 69 68
24 1 70 72 71
25 1 73 75 74
26 1 76 78 77
27 1 79 81 80
28 1 82 84 83
29 1 85 87 86
30 1 88 90 89
31 1 91 93 92
32 1 94 96 95
33 1 97 99 98
34 1 100 102 101
35 1 103 105 104
36 1 106 108 107
37 1 109 111 110
38 1 112 114 113
39 1 115 117 116
40 1 118 120 119
41 1 121 123 122
42 1 124 126 125
43 1 127 129 128
44 1 130 132 131
45 1 133 135 134
46 1 136 138 137
47 1 139 141 140
48 1 142 144 143
49 1 145 147 146
50 1 148 150 149
51 1 151 153 152
52 1 154 156 155
53 1 157 159 158
54 1 160 162 161
55 1 163 165 164
56 1 166 168 167
57 1 169 171 170
58 1 172 174 173
59 1 175 177 176
60 1 178 180 179
61 1 181 183 182
62 1 184 186 185
63 1 187 189 188
64 1 190 192 191
65 1 193 195 194
66 1 196 198 197
67 1 199 201 200
68 1 202 204 203
69 1 205 207 206
70 1 208 210 209
71 1 211 213 212
72 1 214 216 215
73 1 217 219 218
74 1 220 222 221
75 1 223 225 224
76 1 226 228 227
77 1 229 231 230
78 1 232 234 233
79 1 235 237 236
80 1 238 240 239
81 1 241 243 242
82 1 244 246 245
83 1 247 249 248
84 1 250 252 251
85 1 253 255 254
86 1 256 258 257
87 1 259 261 260
88 1 262 264 263
89 1 265 267 266
90 1 268 270 269
91 1 271 273 272
92 1 274 276 275
93 1 277 279 278
94 1 280 282 281
95 1 283 285 284
96 1 286 288 287
97 1 289 291 290
98 1 292 294 293
99 1 295 297 296
100 1 298 300 299

